LAMMPS (19 May 2017)
variable Text equal 300.0
variable Nrun0 equal 10000
variable sigma equal 3.13
variable tau equal 1703.41 # fs
variable dt equal 0.005*${tau}
variable dt equal 0.005*1703.41
variable Tdamp equal 50.0*${dt}
variable Tdamp equal 50.0*8.51705

units real
atom_style atomic
boundary p p p
# processors 2 2 4
# processors 4 4 32
processors * * *

region simulation_space block 0.0 3.17 0.0 40.000 0.0 5.490601 units box
create_box 2 simulation_space
Created orthogonal box = (0 0 0) to (3.17 40 5.4906)
  1 by 1 by 1 MPI processor grid

read_data samples/MoS2trueunit.lammps add merge
  orthogonal box = (0 0 0) to (3.17 40 5.4906)
  1 by 1 by 1 MPI processor grid
  reading atoms ...
  12 atoms

replicate 5 1 5
  orthogonal box = (0 0 0) to (15.85 40 27.453)
  1 by 1 by 1 MPI processor grid
  300 atoms

# mass 1 18.0

neighbor 2.0 bin
neigh_modify delay 0 every 1 check yes

variable cutoff equal 2.5*${sigma}
variable cutoff equal 2.5*3.13
pair_style hybrid/overlay lj/cut ${cutoff} sw
pair_style hybrid/overlay lj/cut 7.825 sw
# for SW potentials
# set coefficients for interactions within a layer
pair_coeff * * sw mos2.sw Mo S

# for LJ potentials
variable epsilon_lj equal 0.00693
pair_modify tail yes
pair_coeff * * lj/cut 0.0 0.0
pair_coeff 1 1 lj/cut ${epsilon_lj} ${sigma}
pair_coeff 1 1 lj/cut 0.00693 ${sigma}
pair_coeff 1 1 lj/cut 0.00693 3.13
# pair_coeff 6 1 lj/cut ${epsilon_lj} ${sigma}

thermo_style custom step temp ke etotal press
thermo_modify flush yes
thermo 10

min_style cg
minimize 1.0e-8 1.0e-8 1000 1000
Neighbor list info ...
  update every 1 steps, delay 0 steps, check yes
  max neighbors/atom: 2000, page size: 100000
  master list distance cutoff = 9.825
  ghost atom cutoff = 9.825
  binsize = 4.9125, bins = 4 9 6
  2 neighbor lists, perpetual/occasional/extra = 2 0 0
  (1) pair lj/cut, perpetual, half/full from (2)
      attributes: half, newton on
      pair build: halffull/newton
      stencil: none
      bin: none
  (2) pair sw, perpetual
      attributes: full, newton on
      pair build: full/bin/atomonly
      stencil: full/bin/3d
      bin: standard
Per MPI rank memory allocation (min/avg/max) = 4.283 | 4.283 | 4.283 Mbytes
Step Temp KinEng TotEng Press 
       0            0            0   -736.66952    3267.8988 
      10            0            0   -909.69111   -325.52315 
      20            0            0   -914.97983   -552.39967 
      30            0            0   -915.14074   -611.83218 
      40            0            0   -915.14169   -612.86736 
      42            0            0    -915.1417   -612.83283 
Loop time of 0.164934 on 1 procs for 42 steps with 300 atoms

99.0% CPU use with 1 MPI tasks x no OpenMP threads

Minimization stats:
  Stopping criterion = energy tolerance
  Energy initial, next-to-last, final = 
        -736.669519855     -915.141697307     -915.141702167
  Force two-norm initial, final = 50.3975 0.00766938
  Force max component initial, final = 3.85082 0.000564466
  Final line search alpha, max atom move = 1 0.000564466
  Iterations, force evaluations = 42 77

MPI task timing breakdown:
Section |  min time  |  avg time  |  max time  |%varavg| %total
---------------------------------------------------------------
Pair    | 0.16322    | 0.16322    | 0.16322    |   0.0 | 98.96
Neigh   | 0          | 0          | 0          |   0.0 |  0.00
Comm    | 0.00076795 | 0.00076795 | 0.00076795 |   0.0 |  0.47
Output  | 0.00024366 | 0.00024366 | 0.00024366 |   0.0 |  0.15
Modify  | 0          | 0          | 0          |   0.0 |  0.00
Other   |            | 0.0006995  |            |       |  0.42

Nlocal:    300 ave 300 max 300 min
Histogram: 1 0 0 0 0 0 0 0 0 0
Nghost:    1856 ave 1856 max 1856 min
Histogram: 1 0 0 0 0 0 0 0 0 0
Neighs:    24900 ave 24900 max 24900 min
Histogram: 1 0 0 0 0 0 0 0 0 0
FullNghs:  49800 ave 49800 max 49800 min
Histogram: 1 0 0 0 0 0 0 0 0 0

Total # of neighbors = 49800
Ave neighs/atom = 166
Neighbor list builds = 0
Dangerous builds = 0
reset_timestep 0
dump 1 all atom 10 relax.lammpstrj

# velocity all create ${Text} 8782734 mom yes rot yes dist gaussian
# npt at 10k for 50000
# heat from 10k to 300k in 50000 steps

fix nvt all nvt temp ${Text} ${Text} ${Tdamp}
fix nvt all nvt temp 300 ${Text} ${Tdamp}
fix nvt all nvt temp 300 300 ${Tdamp}
fix nvt all nvt temp 300 300 425.8525
timestep ${dt}
timestep 8.51705
run ${Nrun0}
run 10000
Per MPI rank memory allocation (min/avg/max) = 4.17 | 4.17 | 4.17 Mbytes
Step Temp KinEng TotEng Press 
       0            0            0    -915.1417   -612.83283 
      10 1.9039018e-06 1.6968757e-06    -915.1417   -612.83175 
      20 3.1627845e-06 2.8188703e-06    -915.1417   -612.82681 
      30 4.6951445e-06 4.1846049e-06    -915.1417   -612.81643 
      40 6.8273248e-06 6.0849366e-06    -915.1417   -612.80377 
      50 6.7984456e-06 6.0591976e-06    -915.1417   -612.79441 
      60 8.6387772e-06 7.6994156e-06    -915.1417    -612.7904 
      70 7.8446912e-06 6.9916768e-06    -915.1417   -612.79019 
      80 7.2940547e-06 6.5009153e-06    -915.1417   -612.79432 
      90 9.8982392e-06 8.8219265e-06    -915.1417   -612.80657 
     100 1.1523052e-05 1.0270061e-05    -915.1417   -612.82783 
     110 1.6475008e-05 1.4683552e-05   -915.14169    -612.8528 
     120 1.9987155e-05 1.7813796e-05   -915.14169   -612.87569 
     130 2.457596e-05 2.1903624e-05   -915.14169   -612.89587 
     140 3.2557263e-05 2.9017058e-05   -915.14169   -612.91449 
     150 3.5945798e-05 3.2037132e-05   -915.14168   -612.92827 
     160 4.1967622e-05 3.7404155e-05   -915.14168   -612.93187 
     170 4.6939901e-05 4.183576e-05   -915.14167   -612.92616 
     180 5.2047055e-05 4.6387573e-05   -915.14167   -612.91834 
     190 6.1754603e-05 5.5039543e-05   -915.14166   -612.91321 
     200 6.6425908e-05 5.9202901e-05   -915.14165   -612.90991 
     210 7.9705303e-05 7.1038325e-05   -915.14164   -612.90932 
     220 9.7208942e-05 8.6638656e-05   -915.14163   -612.91874 
     230 0.00011381208 0.0001014364   -915.14162   -612.94407 
     240 0.00013696987 0.00012207606    -915.1416   -612.98138 
     250 0.00015196528 0.00013544091   -915.14158   -613.02227 
     260 0.00017371457 0.00015482523   -915.14156   -613.06445 
     270 0.00019419002 0.00017307423   -915.14153   -613.10984 
     280 0.00020766193 0.00018508123   -915.14151   -613.15327 
     290 0.00023775545 0.00021190244   -915.14148   -613.18246 
     300 0.00026868033 0.00023946462   -915.14144   -613.19185 
     310 0.00031778956 0.00028323382    -915.1414   -613.18792 
     320 0.00037293287 0.00033238097   -915.14135   -613.17733 
     330 0.00042294255 0.00037695271    -915.1413   -613.15806 
     340 0.00049734817 0.00044326763   -915.14123   -613.12921 
     350 0.00055974168 0.0004988766   -915.14116   -613.10292 
     360 0.0006305421 0.00056197834   -915.14107   -613.09553 
     370 0.00071261573 0.00063512747   -915.14097   -613.11026 
     380 0.00079765149 0.00071091662   -915.14086   -613.13889 
     390 0.00093156241 0.00083026637   -915.14074   -613.17927 
     400 0.0010633552 0.00094772831   -915.14059   -613.23786 
     410 0.0012252566 0.0010920249   -915.14042    -613.3106 
     420   0.00143812  0.001281742   -915.14023   -613.37618 
     430 0.0016639199  0.001482989      -915.14   -613.41627 
     440 0.0019564701 0.0017437279   -915.13972   -613.43145 
     450 0.0022579075 0.0020123876   -915.13941   -613.42811 
     460 0.0026156249 0.0023312076   -915.13904   -613.39888 
     470 0.0030653797 0.0027320571   -915.13861   -613.33352 
     480 0.0035271398 0.0031436064   -915.13811   -613.24432 
     490 0.0041135191 0.0036662241   -915.13753   -613.16102 
     500 0.0047915262 0.0042705062   -915.13684   -613.10036 
     510 0.0056316147 0.0050192454   -915.13604    -613.0579 
     520 0.0067029532 0.0059740888   -915.13509   -613.03618 
     530 0.0078829166 0.0070257456   -915.13395   -613.05742 
     540 0.0093810196 0.0083609482   -915.13261   -613.13253 
     550   0.01112217   0.00991277   -915.13101   -613.23828 
     560  0.013119495   0.01169291    -915.1291   -613.34057 
     570   0.01552783  0.013839368   -915.12685   -613.42931 
     580  0.018236907  0.016253866   -915.12418   -613.50811 
     590   0.02165701  0.019302074   -915.12102   -613.55564 
     600  0.025756802  0.022956064   -915.11725   -613.53358 
     610  0.030609236  0.027280856   -915.11275   -613.43416 
     620   0.03664148  0.032657166   -915.10737   -613.29169 
     630  0.043737965  0.038981995   -915.10091   -613.13702 
     640  0.052408863  0.046710039   -915.09317   -612.96793 
     650  0.062658463  0.055845119   -915.08386   -612.79015 
     660  0.074735609  0.066609024   -915.07273   -612.65059 
     670  0.089548955  0.079811599   -915.05937   -612.59952 
     680   0.10708126  0.095437483   -915.04334   -612.63617 
     690   0.12832105    0.1143677   -915.02409    -612.7169 
     700   0.15388209   0.13714929   -915.00095   -612.82287 
     710    0.1845824   0.16451132   -914.97313   -612.96643 
     720   0.22224029   0.19807437   -914.93959    -613.1194 
     730   0.26719151    0.2381377   -914.89912   -613.19637 
     740   0.32165234   0.28667658   -914.85033   -613.12934 
     750   0.38770645    0.3455481   -914.79138   -612.92998 
     760   0.46703846   0.41625373   -914.72017   -612.63011 
     770   0.56341933   0.50215435   -914.63412   -612.20423 
     780   0.67885006    0.6050334    -914.5301   -611.62259 
     790   0.81883291   0.72979482   -914.38751   -610.79777 
     800   0.98937897   0.88179608   -914.23542   -610.08204 
     810    1.1950415    1.0650953   -914.05129    -609.4349 
     820    1.4456245    1.2884305   -913.82824   -608.82875 
     830    1.7490547    1.5588664   -913.55779   -608.19048 
     840    2.1178226    1.8875352   -913.22983   -607.52209 
     850    2.5658852    2.2868765   -912.83178   -606.85543 
     860     3.106642    2.7688326   -912.34884   -606.10083 
     870    3.7639491    3.3546655   -911.76298   -605.03015 
     880     4.560186    4.0643214   -911.05205   -603.47692 
     890    5.5262336    4.9253231   -910.18958   -601.39363 
     900    6.6999768    5.9714361   -909.14293   -598.70755 
     910    8.1220576     7.238883   -907.87304   -595.20372 
     920    9.8524804    8.7811434   -906.33236    -590.6471 
     930    11.950834    10.651327   -904.46306   -585.03877 
     940    14.493415    12.917433   -902.19671   -578.44542 
     950    17.576573    15.665335    -899.4505   -570.70841 
     960    21.304599    18.987984   -896.12608   -561.53295 
     970    25.816345    23.009132    -892.1066   -550.70324 
     980    31.259353     27.86028    -887.2538   -538.11432 
     990    37.813123    33.701407   -881.40765   -523.40242 
    1000    45.696598     40.72765   -874.38163   -505.80679 
    1010    55.135975     49.14061   -865.96394   -484.55078 
    1020    66.405531     59.18474   -855.91898   -459.02046 
    1030    79.787785    71.111837   -843.99016   -428.56576 
    1040    95.581269    85.187972   -829.91198    -392.1513 
    1050    114.09354    101.68726   -813.42296   -348.72447 
    1060    135.55479    120.81486   -794.29541   -297.86074 
    1070    160.15084    142.73639    -772.3755   -239.43108 
    1080    187.90885    167.47606   -747.63512   -173.42526 
    1090    218.62364    194.85099   -720.24951   -100.27793 
    1100    251.79613    224.41637   -690.68289   -21.368457 
    1110    286.43607    255.28964     -659.791    60.564996 
    1120     321.0758    286.16272   -628.91218    141.80649 
    1130    353.62045    315.16854    -599.9156    217.59768 
    1140    381.39375    339.92183    -575.1628    281.90151 
    1150    401.47655    357.82088   -557.28071    327.79118 
    1160    411.13464    366.42877   -548.67178    348.85389 
    1170    408.83097    364.37559   -550.72984    341.88888 
    1180    395.05998    352.10202   -563.00956    308.52855 
    1190    372.63564    332.11606    -582.9776    255.53544 
    1200    345.83186    308.22687   -606.86585    192.83558 
    1210    318.61011    283.96515   -631.12102    129.61753 
    1220    293.70345    261.76679   -653.32037    72.313516 
    1230    272.51597    242.88319   -672.21031    24.200471 
    1240     255.5676    227.77774   -687.30925   -13.888432 
    1250    243.00368    216.57999   -698.51922   -42.107609 
    1260    234.75664    209.22972    -705.8744   -60.701205 
    1270    230.78712    205.69183   -709.41348   -69.662527 
    1280     231.0948    205.96606   -709.14407   -69.104888 
    1290    235.65512    210.03051   -705.07121   -59.249543 
    1300    244.40467    217.82864   -697.27681   -40.138191 
    1310    257.02092    229.07304    -686.0238   -12.140863 
    1320     272.9152    243.23901   -671.84353    23.740298 
    1330    291.17744    259.51544   -655.57018    65.499905 
    1340    310.51854    276.75344   -638.32813    110.12399 
    1350    329.43757    293.61525   -621.49141    154.20749 
    1360    346.22137    308.57402   -606.56731    194.01853 
    1370    368.56333    328.48657   -595.05729    72.385113 
    1380    384.89891    343.04585   -589.19586    157.20276 
    1390    305.97636    272.70517   -590.16433    1876.8903 
    1400    130.45752    116.27186   -590.92371    1877.9407 
    1410    31.140953    27.754754   -588.14244    3767.4209 
    1420    27.157513    24.204465   -586.76642     3683.274 
    1430    142.40751    126.92243   -575.75545    1948.1759 
    1440    366.19295    326.37393   -544.83951    2224.8502 
    1450    468.97744    417.98187   -501.68137    98.981141 
    1460    482.92161    430.40978   -475.73158   -406.94699 
    1470     485.4475    432.66101   -471.30399    457.31215 
    1480    456.04247    406.45341   -487.03414    1237.2016 
    1490    443.09901     394.9174   -518.54621    599.78282 
    1500    376.55213    335.60668   -557.21638   -488.80482 
    1510    347.80653    309.98682   -593.21821   -284.04241 
    1520    317.60656    283.07073   -626.49866    631.16399 
    1530    275.40099    245.45449   -653.02643    567.83771 
    1540    262.28173    233.76179   -673.97878   -402.00593 
    1550     241.2152    214.98599   -689.82651   -726.22095 
    1560    229.37639    204.43451   -701.03634    49.376599 
    1570    218.16405    194.44137   -707.53079     557.0079 
    1580    228.46617    203.62326   -709.94353   -83.572613 
    1590    211.05143    188.10216   -708.31042   -817.85133 
    1600    233.38227     208.0048    -702.3468   -337.30846 
    1610    239.95498     213.8628    -691.9653     533.6798 
    1620    250.14643    222.94606   -678.55957    351.02831 
    1630    274.66475    244.79831   -661.57576   -527.63142 
    1640    294.16932      262.182   -642.75091   -555.51614 
    1650    311.97896    278.05505   -623.18273    430.48874 
    1660    335.58001    299.08978   -604.61519    845.66305 
    1670    360.45391    321.25895   -587.96483     19.76588 
    1680    352.55075    314.21516    -576.1933   -601.88548 
    1690    384.48703    342.67876   -569.29584    153.75823 
    1700    370.92418     330.5907   -569.13226    980.82701 
    1710    366.30977    326.47805   -575.36061     501.2496 
    1720    355.90088      317.201   -587.12593   -479.61841 
    1730    338.59429     301.7763    -602.6043   -350.88282 
    1740    313.50459    279.41479   -619.70322    585.37267 
    1750    304.31781    271.22696   -636.13173    679.52439 
    1760    285.95096    254.85729   -651.87523   -298.89279 
    1770    259.36041    231.15813   -664.50685   -730.85762 
    1780    269.39143     240.0984   -674.50693    71.256782 
    1790    243.46929    216.99498   -681.82977    633.76321 
    1800    247.86427    220.91205   -685.74576    21.749277 
    1810    245.07846    218.42917   -686.50891   -746.14736 
    1820    249.76303    222.60434   -684.16634   -371.98005 
    1830    248.16639    221.18132   -678.70257    530.30082 
    1840    269.43993    240.14163   -670.33196    608.98213 
    1850    233.19893     207.8414   -659.61178    673.12533 
    1860      222.566    198.36466   -647.24671    617.36275 
    1870    234.39333    208.90591   -631.32531    1116.5481 
    1880    211.81558    188.78322   -613.56015    1799.0523 
    1890    76.377591     68.07246   -600.25081    4669.9453 
    1900    175.96269     156.8289   -587.78446    4266.4864 
    1910    158.63373    141.38425   -564.71538    2709.5029 
    1920    228.80272    203.92322    -541.3111    2128.3261 
    1930    400.09389    356.58856   -505.51752    1633.0398 
    1940    381.13254    339.68903   -471.83232    146.19412 
    1950     438.1552    390.51117   -451.25066    243.89412 
    1960    498.31199    444.12665   -441.51228    176.64118 
    1970    393.91105    351.07803    -451.6412    193.79213 
    1980    374.52264    333.79788   -469.16968    95.098721 
    1990    436.28033    388.84017   -495.68979   -87.835263 
    2000    357.01025    318.18974   -531.46155   -64.040039 
    2010    286.50701    255.35287    -558.4169   -14.621061 
    2020    344.70352    307.22122   -584.92865    -191.7949 
    2030    253.76181    226.16831   -609.20782   -489.71222 
    2040    210.83478    187.90907   -623.52858   -326.93814 
    2050     273.9393    244.15174   -633.88766   -58.413747 
    2060    244.41451    217.83741   -643.19157   -117.74583 
    2070    190.60114    169.87559   -647.15636     -416.806 
    2080     268.5398    239.33938   -646.55221   -350.36692 
    2090    231.60299    206.41899   -642.96835   -212.32957 
    2100    196.33205    174.98333   -636.96369   -133.40264 
    2110    277.79555    247.58867   -625.28193    -286.1561 
    2120    286.66353    255.49237    -608.9713   -344.84294 
    2130    236.00447    210.34186   -594.39391    -159.1237 
    2140    347.43687    309.65735   -575.91497    137.83737 
    2150    322.02109    287.00523   -556.93163   -77.548548 
    2160    281.37656    250.78029   -543.13974   -187.24658 
    2170    348.56334    310.66133   -528.61248   -434.29602 
    2180    416.09116    370.84632   -515.36466    140.82769 
    2190    315.04021    280.78344    -510.7888    423.31947 
    2200    416.05279    370.81213   -510.55746    37.922051 
    2210    388.15519    345.94805   -519.72192   -223.58873 
    2220    246.58314    219.77023   -531.86201    188.56943 
    2230    263.84232    235.15269   -538.43314    351.46502 
    2240    406.87179    362.62944   -547.55948    263.44331 
    2250    281.02478    250.46677   -561.96378   -308.67852 
    2260    299.77398    267.17722   -573.17327   -317.80365 
    2270    335.85975     299.3391   -586.65892   -33.586798 
    2280    239.88212    213.79787   -599.24768   -26.303552 
    2290    250.82613    223.55185   -606.66471   -256.45543 
    2300    307.95304     274.4669   -612.75436   -374.96433 
    2310    235.36828    209.77485   -618.09514   -275.82977 
    2320    247.45096    220.54368   -619.46717    18.757079 
    2330    302.23326    269.36908   -618.02534   -45.217412 
    2340    228.30833    203.48259   -615.77126   -437.24019 
    2350    235.47249    209.86773   -610.66752   -472.60621 
    2360    323.21187    288.06652    -600.7154   -55.065631 
    2370    272.24324    242.64011   -590.18504    117.47004 
    2380    277.56788    247.38576   -580.55081   -135.50919 
    2390    357.18869    318.34878   -567.42606   -308.37555 
    2400    296.90397    264.61929   -557.37728   -214.81647 
    2410    287.50636    256.24355   -549.25328    58.487547 
    2420    377.45439    336.41083   -539.95199    487.60352 
    2430    267.55782    238.46417   -534.35237    2132.2553 
    2440    167.59083    149.36737   -529.63566    3852.8548 
    2450     243.3962    216.92983   -520.70849    2805.1261 
    2460    401.06907    357.45771   -500.55686   -749.86975 
    2470    289.39764    257.92918   -487.28724   -2477.6455 
    2480    430.20768    383.42784   -476.03302   -40.045336 
    2490    338.48822    301.68176   -471.53933    2486.6991 
    2500     371.2097    330.84517   -474.68016    1064.9448 
    2510     197.6925    176.19585   -477.52916   -1640.4748 
    2520    371.43869    331.04927   -478.05907   -1881.6294 
    2530    417.37423    371.98988   -485.38937    1426.6151 
    2540    287.87468    256.57182   -496.35196    2292.5936 
    2550    394.11661    351.26124   -512.37983   -606.79559 
    2560    250.24669    223.03542   -528.62794   -2510.3725 
    2570    351.74614    313.49804   -542.98929   -443.07266 
    2580    251.68186    224.31453   -558.87655    2077.1467 
    2590    296.23123     264.0197   -570.59577    1565.8909 
    2600    235.57974    209.96332   -580.86848   -541.68408 
    2610    191.11714    170.33548   -586.10594    338.02534 
    2620    152.60176    136.00818   -585.38731    763.83584 
    2630     316.6781    282.24322   -578.28679    450.73022 
    2640    188.99304    168.44236     -567.852   -299.52671 
    2650    218.28603    194.55008   -558.69263   -992.80783 
    2660    347.11259    309.36834   -538.38208   -928.07459 
    2670     245.2228    218.55781   -519.78702    335.47703 
    2680    231.52297    206.34767   -505.93526    928.72008 
    2690    279.51168    249.11819   -485.60281   -597.32401 
    2700    241.54765    215.28229    -466.7317   -1584.8919 
    2710    321.84911    286.85195   -444.90895   -26.206144 
    2720     315.7713    281.43503   -422.86469    1450.5852 
    2730    353.89982    315.41753   -403.08269    843.72516 
    2740    329.73146    293.87718   -387.99444   -1420.1456 
    2750    283.00938    252.23556   -375.99463   -1693.3829 
    2760    435.40299    388.05823   -363.44752    -604.6287 
    2770    432.38022    385.36415   -359.40515    53.689698 
    2780    339.31102    302.41509   -367.45101   -64.671934 
    2790    345.62236    308.04015   -378.36108    180.13783 
    2800    401.87915    358.17969   -395.16679    20.819382 
    2810    303.51556    270.51195   -417.02475     1765.331 
    2820    241.03264    214.82328   -431.03124    1469.2602 
    2830    314.70968    280.48884   -444.16873   -321.69157 
    2840    207.43081    184.87525   -455.15392    484.49651 
    2850    274.73383    244.85988     -462.941    909.55995 
    2860    188.91214    168.37025    -466.2253    1529.5021 
    2870    349.83962    311.79883   -465.91742   -171.68767 
    2880    361.61964    322.29792   -467.61211   -1582.6819 
    2890    272.80207    243.13817   -473.57431    681.93554 
    2900    321.83404    286.83852   -477.20809    1786.7616 
    2910    364.27666    324.66602   -484.40798    201.77346 
    2920    230.30922     205.2659   -492.84602   -1461.9266 
    2930     294.7114    262.66513   -497.26546   -1101.5554 
    2940    299.16307    266.63274   -502.45096    1103.8508 
    2950    258.70732    230.57605   -505.26823    1411.7974 
    2960    348.16466      310.306   -507.90088   -1124.6701 
    2970     229.4243     204.4772   -511.27809   -1147.0052 
    2980    233.61211    208.20964   -510.94987    433.43495 
    2990    294.80377    262.74746   -506.96679    1556.7093 
    3000    273.18323    243.47789   -501.47983    376.83813 
    3010    300.09961    267.46744    -494.7629   -1153.4924 
    3020    281.09832    250.53231   -487.81876   -240.59791 
    3030    216.73807    193.17045   -480.62273    945.62203 
    3040     362.3126    322.91552   -468.15531    1598.0142 
    3050     189.1083    168.54508   -458.64835    2866.2016 
    3060    288.65968    257.27146   -445.95052    2075.8992 
    3070    404.95217    360.91856   -427.32965    264.38218 
    3080    348.33924     310.4616   -414.39501   -331.35098 
    3090    319.04115    284.34932    -408.5566    125.17201 
    3100    385.11324    343.23688   -404.35684    896.81084 
    3110    461.42181    411.24782   -408.48641    405.65296 
    3120    310.62735    276.85041   -424.62552   -792.76599 
    3130    273.04001    243.35024   -436.27715   -590.69392 
    3140    343.93053    306.53228   -449.63396    979.80866 
    3150    276.74093    246.64873   -462.38033    1004.6476 
    3160    346.06311    308.43297   -476.87762   -775.92892 
    3170    206.44444    183.99613   -489.05345   -1394.1917 
    3180    265.57026    236.69274   -495.51647    -332.8651 
    3190    268.89441    239.65543   -500.33737    1174.6274 
    3200    290.93704    259.30118   -503.54706    556.24761 
    3210    221.11853    197.07459   -505.11884   -973.52333 
    3220    189.30905      168.724   -502.80326   -1002.7902 
    3230     335.4186    298.94592   -494.36115    601.94016 
    3240    229.21462    204.29033   -485.19933    1033.7079 
    3250     264.8612    236.06077   -475.26605   -404.65703 
    3260    294.54289    262.51495   -461.27353    -1387.856 
    3270    313.96291    279.82328   -446.54656   -632.92235 
    3280     415.2497    370.09636   -432.02094     808.5468 
    3290     351.4845    313.26485   -424.86385    766.04862 
    3300    343.56783    306.20903   -424.01837    354.31819 
    3310    331.71145    295.64188   -426.51925   -693.56558 
    3320    313.36791    279.29298   -431.46989   -735.62653 
    3330    257.00983    229.06315   -436.18959    142.93205 
    3340    332.52335    296.36549   -439.01205    143.05834 
    3350    334.97322    298.54897   -444.27345   -288.00732 
    3360    254.46399    226.79414   -450.60245    147.70662 
    3370    222.51931    198.32305   -453.62033    217.79618 
    3380    209.56987     186.7817   -452.37193   -213.44004 
    3390     252.0952    224.68293   -446.44291   -282.98569 
    3400    300.73199    268.03106   -436.21828    106.19193 
    3410    341.18485    304.08516   -424.85717     225.4755 
    3420    326.27679    290.79817   -415.65594    809.86323 
    3430    292.62287     260.8037   -409.43085     404.9129 
    3440    313.22837    279.16861   -402.70173   -780.12784 
    3450       285.42    254.38406   -396.88287   -927.60188 
    3460    314.77561    280.54761   -390.56078     40.71701 
    3470    335.83547    299.31746    -384.7149    824.82335 
    3480    378.22356    337.09636   -381.76815    735.26577 
    3490    319.69371    284.93092   -384.25143   -256.00412 
    3500    281.44964    250.84543   -387.98761   -733.39985 
    3510    286.85591    255.66383   -390.67863   -602.66033 
    3520      272.733    243.07661    -392.2409   -153.34013 
    3530    282.20744    251.52082   -392.15315   -145.40918 
    3540    302.62812    269.72101   -390.82358    -428.7665 
    3550    343.51698     306.1637   -389.88694   -587.48661 
    3560     335.2839    298.82586   -391.90566   -232.58486 
    3570    306.94876    273.57183   -396.35865    170.67009 
    3580    291.81915    260.08738   -401.20623    444.84826 
    3590    281.11028    250.54297   -405.18421    155.03708 
    3600    286.88616    255.69079    -408.0167    -225.5241 
    3610    286.03332    254.93069   -409.93797   -114.92449 
    3620    295.89172    263.71711   -410.97722     77.97509 
    3630    308.15849    274.65001   -411.82557    106.62466 
    3640    296.12707    263.92687   -413.01257    107.89771 
    3650    288.54805    257.17198   -414.00667   -180.86696 
    3660    275.00226    245.09912   -414.07994   -224.67887 
    3670    274.86713    244.97869   -412.69056   -1.5186373 
    3680    291.98365    260.23399   -409.72501    143.41551 
    3690    299.30242    266.75693   -405.81545    82.978881 
    3700    295.38202    263.26283   -401.90865    -63.48619 
    3710    296.56684    264.31881   -397.69783   -108.10064 
    3720    303.14854    270.18484   -393.25533    58.583974 
    3730    299.94124    267.32629   -388.95942     390.0708 
    3740      305.024    271.85636    -384.7095    335.43467 
    3750    317.99724    283.41893   -380.79169    68.004141 
    3760    329.08889    293.30449   -378.14436    380.38103 
    3770    317.00507    282.53463   -377.54174    771.01528 
    3780    312.35728    278.39224   -378.36495    727.85056 
    3790    300.65665    267.96391   -379.88544    533.18935 
    3800    292.29037    260.50736   -381.44171    552.61591 
    3810    291.95234    260.20609   -382.50815    526.64157 
    3820     292.5825    260.76772    -382.9754    399.52167 
    3830    302.64863    269.73929   -383.02463    164.30785 
    3840    299.38671    266.83206   -383.15256    81.416486 
    3850     283.9787    253.09948   -383.17139    95.229937 
    3860    294.33119    262.32627    -382.3639    102.39039 
    3870    294.94246    262.87107   -380.98929   -54.823166 
    3880    290.13925    258.59015   -379.24009   -162.85233 
    3890    291.38588    259.70122   -376.87074   -343.74482 
    3900     284.7931    253.82532   -373.93214   -360.57603 
    3910    280.87414     250.3325   -370.01821   -211.24716 
    3920    298.32939    265.88971   -364.88358   -121.20511 
    3930    296.06607     263.8725   -359.29434   -132.66454 
    3940    303.48316    270.48307   -353.67667   -92.650586 
    3950    299.22403    266.68707   -348.08044   -62.037145 
    3960    301.99729    269.15877   -342.63263   -26.676118 
    3970    298.50722     266.0482   -337.20815    -31.93174 
    3980    305.96638    272.69627   -331.86852   -135.95866 
    3990    306.04637    272.76757   -326.75869   -80.861939 
    4000     308.7626    275.18844   -322.18708   -8.3333107 
    4010    308.84672    275.26341   -318.19331    20.076319 
    4020    316.85527    282.40113   -314.87825    42.971632 
    4030     314.2485    280.07781   -312.71958    66.189121 
    4040    297.17428    264.86021    -311.4698   -41.293746 
    4050    299.13416    266.60697   -310.28581   -116.18353 
    4060    310.77363    276.98079   -309.03606   -101.04655 
    4070    312.21908    278.26907   -308.45057    13.822763 
    4080    316.96002    282.49449   -308.88028    128.72612 
    4090    303.51493    270.51138   -310.29754   -131.50761 
    4100    308.37782     274.8455   -312.22475   -371.10136 
    4110    300.00915    267.38682   -314.58107    -361.6409 
    4120    295.08697    262.99987    -316.9912    -12.71515 
    4130    290.14688    258.59695    -318.9491    154.64592 
    4140    292.02438    260.27029   -320.29763    83.475647 
    4150    291.10526    259.45111   -321.04967   -73.586874 
    4160     289.7948    258.28315   -321.21226   -149.00431 
    4170    282.76834    252.02073   -320.62151      40.1955 
    4180    285.45703    254.41706   -318.95204    81.576101 
    4190    292.74707     260.9144   -316.25748    7.8400867 
    4200    305.41033    272.20068   -313.02609   -55.039005 
    4210    299.47271    266.90871   -309.93768   -178.53746 
    4220    297.17333    264.85936    -306.9549   -53.563539 
    4230    294.09471     262.1155   -303.76862    27.697364 
    4240    310.29117    276.55079   -300.29903   -40.144053 
    4250    310.68775    276.90425   -297.32692   -126.14887 
    4260    303.19165    270.22325   -295.12549   -251.00012 
    4270    317.66517    283.12296   -293.34239   -174.38983 
    4280    309.88654    276.19016   -292.54248   -33.044714 
    4290    305.09897    271.92318     -292.607   -64.897252 
    4300    306.60415    273.26469    -293.1178   -199.70694 
    4310    297.57299    265.21556   -293.96561   -232.72228 
    4320    294.80147    262.74541   -294.73221   -273.74706 
    4330     291.1878    259.52468   -295.10064   -143.71472 
    4340    291.51119    259.81291    -294.8889    30.207241 
    4350    287.85755    256.55655   -294.05475    227.40389 
    4360    295.08397    262.99719   -292.49615    71.640925 
    4370    307.99407    274.50347   -290.47022   -176.04853 
    4380    306.87726     273.5081   -288.86692   -76.209797 
    4390    298.53592    266.07378   -287.74829    119.11976 
    4400    306.54218    273.20946   -286.64179     81.36407 
    4410    309.39103    275.74853   -285.99295    13.049412 
    4420    313.68501    279.57559   -286.03706    -24.80743 
    4430    307.19072    273.78747   -286.95421    114.82459 
    4440    300.09533    267.46363   -288.43017    282.08617 
    4450    311.69121    277.79859   -290.10602    220.00747 
    4460    300.99898    268.26901   -292.40589    26.816052 
    4470    297.76957    265.39076    -294.8412   -1.6828017 
    4480    295.93962     263.7598     -297.028    73.627296 
    4490    299.43341    266.87368   -299.08242    191.31656 
    4500    300.65635    267.96364   -301.03681    135.37558 
    4510    300.58841    267.90309   -303.06937    160.10478 
    4520    298.78965    266.29992   -305.10835    93.334316 
    4530    298.56263    266.09759   -307.04673     58.62278 
    4540    292.90267    261.05308   -308.87142    35.338056 
    4550    288.96662    257.54503   -310.16842    191.04393 
    4560    294.80722    262.75053   -310.79974    271.48074 
    4570     290.3558    258.78315   -310.94782    183.10604 
    4580    291.51772    259.81873   -310.52815    113.51287 
    4590    289.85292    258.33495   -309.46915    156.55348 
    4600    286.22892    255.10501   -307.68877    207.83825 
    4610    290.08884    258.54522   -305.05913    210.18957 
    4620    306.27921    272.97509   -301.72536    103.33536 
    4630     309.6185    275.95127   -298.49089    40.518922 
    4640    317.79331    283.23717     -295.976    171.60013 
    4650     316.4944    282.07949   -294.73859    294.47813 
    4660    311.75066    277.85158   -294.67008    361.90073 
    4670    305.99887    272.72522   -295.44988    335.03095 
    4680    302.99351    270.04666   -296.69946    189.53064 
    4690     306.3352    273.02498   -298.21927    16.650306 
    4700    306.03289    272.75555   -300.13163    138.54795 
    4710    308.54506    274.99455      -302.55     395.0887 
    4720    304.41046    271.30954    -305.4329    476.17583 
    4730    303.60641    270.59292   -308.69113    311.45163 
    4740    295.46101    263.33323   -312.07899    107.32235 
    4750    287.45435     256.1972    -315.0089    27.233506 
    4760    298.61547    266.14468   -317.28732     68.08307 
    4770    297.53531    265.18198   -319.32647    177.06425 
    4780    313.59198    279.49268   -321.46387    165.42238 
    4790    318.90395    284.22704   -324.66855    157.21886 
    4800    299.40805    266.85108   -328.86368    306.73033 
    4810    300.73249     268.0315   -333.14936    413.09041 
    4820    295.00678    262.92839   -337.38418    462.78036 
    4830    285.37766    254.34632    -341.0183    524.79155 
    4840    297.03521    264.73626    -343.9242    415.52302 
    4850    303.63437    270.61784   -346.64303    294.61593 
    4860    300.93264    268.20988   -349.61078    166.32721 
    4870    293.46162    261.55125   -352.48392    165.40533 
    4880    299.57271    266.99784    -355.1318    216.94848 
    4890    287.98763    256.67249   -357.52323    378.32391 
    4900    292.97761    261.11987   -359.22294    395.77224 
    4910    300.97239    268.24532   -360.47436    268.54542 
    4920    299.72851    267.13669   -361.69593    218.08484 
    4930    298.29046    265.85501   -362.99802    340.11664 
    4940     294.5254    262.49936   -364.06344    346.26037 
    4950    297.94577     265.5478    -364.9114    316.93266 
    4960    296.10032    263.90302   -365.58084    186.29334 
    4970    292.34739    260.55818   -365.86147    276.99212 
    4980    292.66112    260.83779   -365.70138    243.68688 
    4990    295.43011    263.30569   -364.97136     183.7424 
    5000    301.80397    268.98647   -363.92253    264.41567 
    5010    311.25959    277.41391   -363.09011    407.01708 
    5020    315.04117    280.78429   -362.92774    231.15207 
    5030    295.61839     263.4735   -363.74452    151.84632 
    5040    281.31258    250.72327   -364.22306    209.85593 
    5050     293.7922    261.84588   -363.57829    256.78031 
    5060    299.68442     267.0974   -362.36233    275.70705 
    5070    314.76544    280.53854    -361.1777    155.93523 
    5080    311.86859    277.95669   -360.87429    251.32165 
    5090    307.00788    273.62452   -361.45252    221.19307 
    5100    299.76573    267.16987   -362.56758     153.3427 
    5110    297.84753    265.46025   -363.67487    179.71988 
    5120    305.24503    272.05336   -364.63845    172.90956 
    5130    318.53773    283.90064    -366.2165      262.267 
    5140     316.8434    282.39055   -369.08088    276.98318 
    5150    312.63551    278.64022   -373.25284    432.03745 
    5160    295.01039    262.93161   -378.05035    594.34222 
    5170     289.3992    257.93057   -382.36423    552.09777 
    5180    305.53778    272.31427   -386.35396    279.67494 
    5190    295.65348    263.50478     -390.408    70.600574 
    5200    300.31214    267.65686    -394.3999    190.99292 
    5210    290.38654    258.81055    -398.0803     215.9675 
    5220    299.17012    266.63902   -401.38377    139.77323 
    5230    284.17296    253.27262    -404.2333   -4.0935434 
    5240    292.69005    260.86358   -406.33017   -72.213464 
    5250    285.62124    254.56342   -407.64597    98.274684 
    5260    294.04334    262.06972   -408.26762    240.19788 
    5270    287.91159    256.60472   -408.29754    229.96324 
    5280    283.97305    253.09445   -407.51776     9.092486 
    5290    280.00577    249.55856    -405.6896    33.399666 
    5300    280.12152    249.66173   -402.58976    420.87294 
    5310    301.82587    269.00599   -398.15776    579.33189 
    5320    307.05965    273.67066   -393.43808    313.99115 
    5330    298.06019    265.64978   -389.25287    161.31726 
    5340    309.22437    275.59999    -385.0834    10.437157 
    5350    320.68967    285.81858   -381.39451    35.896155 
    5360    321.20252    286.27566   -379.11141    150.34964 
    5370    313.45798    279.37325   -378.46415    171.36119 
    5380    310.31674    276.57358   -378.88326    42.015353 
    5390    309.06369    275.45679   -380.14734    301.28136 
    5400    298.91188    266.40886    -381.8473    505.10937 
    5410    303.06481    270.11021   -383.72118    318.62786 
    5420    297.41614    265.07577   -385.73278     263.8632 
    5430    296.85646    264.57695   -387.55348    255.99188 
    5440    304.26694    271.18162   -389.31147    400.98376 
    5450    300.47074    267.79822   -391.24715     382.5851 
    5460    306.06112    272.78071   -393.32174    165.70331 
    5470     301.8803    269.05451   -395.73198    119.22866 
    5480    302.99122    270.04462   -398.32038    46.217049 
    5490    301.92701    269.09614   -401.15212    19.631735 
    5500    296.78785     264.5158   -404.05542    95.118485 
    5510    284.45428    253.52335   -406.67457    273.81745 
    5520    271.17051    241.68403   -408.07383     427.9967 
    5530    285.83361    254.75269   -407.72917    327.79913 
    5540    306.49902    273.17099    -406.4255    128.87324 
    5550    291.90464    260.16357    -405.2648    74.080618 
    5560    280.74487    250.21729   -403.72587     127.4358 
    5570    285.13718    254.13199   -400.92272    163.82759 
    5580    300.93511    268.21209   -397.08224    223.46046 
    5590    294.90162    262.83467   -393.04217    306.61208 
    5600    309.89618    276.19875   -388.83233    243.39511 
    5610    318.46424    283.83514   -385.04634    390.06471 
    5620    316.03018    281.66576   -382.62252    503.03985 
    5630    326.24711    290.77172   -381.45387    434.44859 
    5640    308.04273    274.54684   -382.00761    478.85914 
    5650    299.27164     266.7295   -383.22939    455.94097 
    5660    301.85296    269.03014   -384.31683    414.23646 
    5670     307.0425    273.65538   -385.69129    424.97291 
    5680    296.39916    264.16937   -387.36941    307.44066 
    5690    298.65123    266.17655    -388.9474     154.4495 
    5700    292.38346    260.59033   -390.32765    88.100506 
    5710    297.70652    265.33457   -391.29244    175.88623 
    5720    307.72985    274.26799   -392.13005    232.37679 
    5730    302.90166     269.9648   -393.39734    266.24308 
    5740    302.08012    269.23259   -394.99972    265.51629 
    5750    285.39788    254.36434   -396.49391    283.77142 
    5760    288.54574    257.16991   -397.21501    382.60057 
    5770     287.6327    256.35615   -397.02915    323.72162 
    5780    305.09302    271.91788   -396.23885    261.81533 
    5790    304.07395    271.00962   -395.58974     108.3461 
    5800    304.94882    271.78936   -395.36557    160.01573 
    5810    298.59334    266.12495    -395.3444    193.46085 
    5820    305.80183    272.54962   -395.39787    95.945825 
    5830    310.05134    276.33704   -395.88662    48.247932 
    5840    287.19869    255.96933   -396.75345    303.22319 
    5850    288.20962    256.87034   -397.02875    293.75249 
    5860    294.00416     262.0348   -396.45757    365.65434 
    5870     310.7704    276.97791   -395.51469    330.93054 
    5880      320.766    285.88661   -395.34593     181.7157 
    5890    295.46344    263.33539   -396.29572    132.99492 
    5900    298.81484    266.32237   -397.24033     122.4176 
    5910    300.09365    267.46213   -397.96165    100.48679 
    5920    301.30839    268.54478   -398.71115    357.16409 
    5930    304.62247    271.49849   -399.61248    396.33299 
    5940    302.39278    269.51125   -400.86989     356.6958 
    5950    304.46351    271.35682   -402.29191     346.8244 
    5960    317.25947    282.76137   -404.27498    166.32168 
    5970    299.38346    266.82916   -407.15104    206.12819 
    5980    306.65891    273.31349   -410.36154    195.89213 
    5990    302.05604    269.21113   -413.82502    430.23112 
    6000    296.70045     264.4379   -417.41799    391.43579 
    6010    290.64206    259.03829   -420.65873    268.35123 
    6020    286.46474     255.3152   -423.19836    106.86484 
    6030    293.39637     261.4931   -424.96237    268.90832 
    6040    303.96125    270.90918   -426.38657    374.65141 
    6050    298.42241    265.97262   -427.93394    277.01098 
    6060    284.58044    253.63579   -429.28507    212.64061 
    6070    277.55181    247.37143   -429.63661    340.29618 
    6080    282.43463    251.72332   -428.58049    398.56026 
    6090    285.08628    254.08662   -426.24115    335.90588 
    6100     280.5414    250.03595   -422.88719    262.29897 
    6110    296.59963    264.34804   -418.30364    287.51793 
    6120    315.36954    281.07695   -413.08331    311.33861 
    6130    312.34826     278.3842    -408.8558     481.7226 
    6140    307.97749    274.48869   -405.66833    440.14075 
    6150    305.55333    272.32814   -403.07181     360.8342 
    6160    303.67719      270.656   -400.87974    273.13839 
    6170    294.68184    262.63879   -398.84479    285.45983 
    6180    305.61756    272.38538   -396.60646    228.18627 
    6190    304.27582    271.18953   -394.53611    129.78258 
    6200    303.43524    270.44036   -392.85262    207.49143 
    6210    308.17026    274.66051   -391.44178    188.59952 
    6220    307.39547    273.96996   -390.58607    265.03632 
    6230    311.62442    277.73907   -390.34159     332.9079 
    6240    311.62186    277.73678   -390.84613    244.25838 
    6250    318.31295     283.7003   -392.41823    204.00869 
    6260    303.07713    270.12119    -395.0727     269.8071 
    6270    296.05957    263.86671   -397.95524    496.38038 
    6280    308.52892    274.98016   -400.85498    597.33379 
    6290    308.83456    275.25257   -404.29443     433.4159 
    6300    297.03594    264.73691   -408.19192    281.00131 
    6310     295.7768    263.61468   -411.97521    346.37635 
    6320    282.16212    251.48043   -415.21919      349.938 
    6330    286.93067    255.73046   -417.44633    394.67949 
    6340    288.46812    257.10073    -418.6761    356.26128 
    6350    293.51541    261.59919   -419.29453      254.343 
    6360    278.06251    247.82661   -419.23587    290.28176 
    6370    290.06058    258.52003   -417.97373    295.65651 
    6380     302.0328    269.19042   -415.89047    153.95964 
    6390     298.7176     266.2357   -413.74778  -0.14145959 
    6400      298.429    265.97848    -411.5738   -9.7618153 
    6410    292.01357    260.26066   -409.13029   -40.562796 
    6420    300.18264    267.54144   -406.20335    6.3606548 
    6430    306.65183    273.30719   -403.18223    259.23606 
    6440     313.5309    279.43825    -400.6441    243.59754 
    6450    312.57079    278.58254   -398.92248    205.78443 
    6460    329.27488    293.47026      -398.35    54.813639 
    6470    318.50298    283.86966   -399.74682    199.57119 
    6480    321.20042    286.27379     -402.716    342.68013 
    6490    315.94807    281.59257    -407.2686    515.30566 
    6500    304.03302    270.97314   -412.77578     486.3273 
    6510    294.09713    262.11765   -418.26114    349.39069 
    6520    285.15239    254.14555   -422.98547     224.3413 
    6530    280.49558    249.99511   -426.36013    33.195437 
    6540    287.88096    256.57742   -428.48259   -105.28784 
    6550    300.04675    267.42033   -430.02746    31.729039 
    6560    298.59813    266.12923   -431.52063    104.83406 
    6570    286.21684    255.09425   -432.82153    142.83537 
    6580    278.08903    247.85024   -433.14451    225.92573 
    6590    307.52353     274.0841   -432.31772    265.79836 
    6600    299.99905    267.37781   -431.56762     377.2668 
    6610    290.69575    259.08613   -431.03292    307.22592 
    6620    281.88524    251.23366   -429.77757    527.40937 
    6630     296.4674    264.23019   -427.40363    367.17794 
    6640    304.67631    271.54648   -424.54219    306.95184 
    6650     297.8575    265.46913     -421.791    304.42828 
    6660    293.77631    261.83172   -418.77761    306.32976 
    6670    312.96793    278.93648   -415.45541    292.31208 
    6680    309.06394    275.45701   -412.62818     144.5579 
    6690    304.01934    270.96095   -410.47741    164.31393 
    6700    316.45301    282.04261   -408.67488    394.56381 
    6710    310.49394    276.73151   -407.80724    530.88727 
    6720    300.35539    267.69541   -407.71701    474.24277 
    6730    309.30525    275.67208   -407.79538     472.0324 
    6740    302.88685     269.9516   -408.33475    460.79031 
    6750    309.98726    276.27993   -409.48949    305.88837 
    6760    296.86165    264.58156   -411.26913    365.85178 
    6770     303.8289    270.79122   -413.27973    225.06848 
    6780    290.23788    258.67805   -415.68024    165.72775 
    6790    294.41731    262.40302   -417.84593    88.942612 
    6800    297.93902    265.54179   -419.99199    12.693869 
    6810    288.24036    256.89774   -422.20887   -3.6301768 
    6820    289.63144    258.13756   -424.09848    164.04972 
    6830    276.22784    246.19144   -425.40358    272.31245 
    6840     266.5451    237.56157     -425.223    365.21838 
    6850    278.97548     248.6403   -422.80375     420.2057 
    6860    271.72359    242.17696   -417.98471    480.94559 
    6870    287.17199    255.94554   -410.63839     388.8731 
    6880    305.71056    272.46827    -401.9191    301.39274 
    6890     302.5956    269.69202      -394.81    397.59578 
    6900    307.98778    274.49787   -389.67742    222.92808 
    6910    315.21201    280.93655   -386.37671    75.216041 
    6920    321.81331    286.82004   -384.91039    94.648765 
    6930    307.39818    273.97238   -384.96149    224.40886 
    6940    312.60693    278.61474   -385.70749    118.19369 
    6950    315.80367    281.46387   -387.36484    233.30301 
    6960    309.22004    275.59614   -389.94406    320.08905 
    6970    306.15943    272.86833   -393.25958    397.17292 
    6980    313.24455    279.18303   -397.09106    277.93906 
    6990    313.62876    279.52546   -401.90906    166.42934 
    7000    305.48669    272.26874   -407.45148    297.74146 
    7010    298.33008    265.89033   -412.73379    416.82069 
    7020    288.99477    257.57012   -416.99762    337.86192 
    7030    292.99448     261.1349   -419.99288    236.31215 
    7040    296.42983    264.19671   -421.93839    295.87622 
    7050    291.42429    259.73545   -423.25683    369.35188 
    7060    288.69812    257.30572   -423.80313    425.83823 
    7070     295.0761    262.99018   -423.61214    537.21693 
    7080    295.81202    263.64607   -423.07217    322.51413 
    7090    296.62279    264.36868   -422.36564    19.333022 
    7100    285.13188    254.12726   -421.39021   -9.6834126 
    7110    290.89524    259.26393   -419.78966    135.00956 
    7120    290.61351    259.01284   -417.68506    416.71739 
    7130    287.71191    256.42675   -415.20582    506.47804 
    7140    305.12065     271.9425   -412.36283    527.98853 
    7150    313.24496    279.18339   -410.09973    314.73888 
    7160    316.43123     282.0232   -409.15946    174.25468 
    7170    289.92438    258.39864   -409.16091    289.00264 
    7180    300.72038    268.02071   -408.87114    108.14992 
    7190    310.57364    276.80254   -408.61551    121.68177 
    7200    303.65607    270.63718   -409.01123     386.8329 
    7210    304.93221    271.77455   -409.51679    440.25761 
    7220    311.21261    277.37204   -410.18958    368.43844 
    7230    302.13251    269.27929   -411.36093     344.3615 
    7240    295.53874    263.40251   -412.33334    324.86876 
    7250    299.62076    267.04066   -412.94271    238.95491 
    7260    306.64635     273.3023   -413.50039     212.2354 
    7270     301.8639    269.03989   -414.36087    329.52258 
    7280    294.34072    262.33476   -415.16342    290.09343 
    7290     302.5733    269.67215   -415.68521    195.07347 
    7300    301.55701    268.76636   -416.29744    64.962425 
    7310    296.45616    264.22017   -416.98446   -58.111036 
    7320    299.88964     267.2803   -417.54698     146.1701 
    7330    299.22537    266.68827   -418.08581    388.12994 
    7340    304.40531    271.30494   -418.90444    528.49268 
    7350    298.78893    266.29928   -420.12074    579.08541 
    7360    306.94592     273.5693   -422.10132    437.63116 
    7370    282.93732    252.17134   -425.28849    386.72369 
    7380    280.50204    250.00087   -428.79859    363.33413 
    7390    285.50522    254.46001   -432.09923    133.70893 
    7400     284.7923    253.82462   -435.25136   -6.7776023 
    7410    274.90047     245.0084   -437.70311    28.596396 
    7420    278.75957    248.44787   -438.91603    98.533141 
    7430    274.52965     244.6779    -438.7788    148.98122 
    7440    277.91494    247.69508   -436.87258    104.16796 
    7450    286.32433    255.19006   -433.04973   -60.909211 
    7460    289.74531    258.23904   -427.80896    50.472234 
    7470    289.83143     258.3158   -421.60749    319.01953 
    7480    304.48924    271.37975   -415.04056    360.99102 
    7490    293.44572    261.53708   -409.34171    381.63341 
    7500    303.45624    270.45908   -404.49697    238.86741 
    7510    321.18605    286.26099   -400.57694    295.37136 
    7520    321.29202    286.35543   -398.56419    540.66186 
    7530    314.63663    280.42374   -398.37161    530.09745 
    7540    300.43731    267.76842    -399.0308    294.39599 
    7550    309.99018    276.28254   -400.01147    89.506391 
    7560    306.69543    273.34605   -401.53275    366.62634 
    7570    296.36917    264.14264   -403.57319    394.05175 
    7580    286.23058     255.1065   -405.27789    257.75151 
    7590    298.00682    265.60221     -406.384     121.2211 
    7600    295.40386     263.2823   -407.40602    214.11697 
    7610    299.12415    266.59805   -408.34188    212.13545 
    7620    293.64774    261.71713   -409.34572    75.943135 
    7630    290.15449    258.60373   -410.27013    38.878253 
    7640    293.28653     261.3952   -410.85419    -80.39743 
    7650    288.63134    257.24621   -411.03535    201.70394 
    7660    295.64677     263.4988    -410.4765    412.02437 
    7670     317.2029    282.71095    -409.4185    412.56708 
    7680    298.49051    266.03331   -408.92059    285.73378 
    7690    300.37396    267.71196   -408.54652    279.76242 
    7700    307.11398    273.71908   -408.06105     399.6036 
    7710    300.26862    267.61807   -407.98155    448.95698 
    7720    299.39146    266.83629   -407.92763     329.4081 
    7730    294.48992    262.46774   -407.76026    175.07925 
    7740    299.74747    267.15359   -407.33646    204.64864 
    7750    293.06575    261.19842   -406.66636    118.54481 
    7760    296.81676    264.54156   -405.51519    51.009381 
    7770    296.74001    264.47316   -403.77565    60.743401 
    7780    311.38683    277.52731   -401.73767    142.83813 
    7790    302.99802    270.05068   -399.91264    306.73889 
    7800    302.73748    269.81847   -398.28988    404.96292 
    7810    311.98253    278.05824    -396.7237    546.55295 
    7820    314.84176    280.60656   -395.66652    457.73995 
    7830    316.50415    282.08819   -395.65174    412.55027 
    7840    312.95599    278.92584   -396.85577    278.31912 
    7850    313.21098    279.15311   -399.61473    260.73441 
    7860    291.20427    259.53936   -403.51417     181.0373 
    7870    298.07358    265.66172   -407.66923    50.920771 
    7880    291.80877    260.07812   -412.24805    121.30818 
    7890    269.08087    239.82161   -416.19637    235.47573 
    7900    279.16469    248.80894   -418.66809    315.89646 
    7910    279.12566    248.77416   -419.85601    229.82059 
    7920    288.77913    257.37792   -419.74346    151.96293 
    7930    304.17376    271.09858   -418.83758    170.03314 
    7940    290.88108    259.25131   -417.71706    228.04882 
    7950    286.94149    255.74011   -415.75151    204.73455 
    7960    290.46134    258.87721   -412.11462    243.99063 
    7970    298.87679    266.37759   -406.47546    297.63661 
    7980    306.90206    273.53021   -399.40216    366.77792 
    7990    319.41599     284.6834   -392.12308    191.30556 
    8000    320.11378    285.30531   -386.33085    161.81678 
    8010    315.01066     280.7571   -382.39873    268.82774 
    8020    319.74005    284.97222   -379.98148    251.10862 
    8030    327.08741    291.52065   -379.37576    192.40779 
    8040    304.44552    271.34079   -380.36957     138.5908 
    8050    301.41195    268.63708   -381.82941    95.586579 
    8060    307.18078    273.77862   -383.50115    76.754263 
    8070     310.7636    276.97185   -385.77036    47.937542 
    8080    299.23036    266.69271   -388.86995    167.66749 
    8090    317.22919    282.73439   -392.73712     212.4445 
    8100    325.35445    289.97612   -398.90541    397.65597 
    8110    296.28557    264.06813   -407.56871    520.48814 
    8120    285.41108    254.37611   -415.65203    399.66401 
    8130    290.39867    258.82135    -421.6419     278.2288 
    8140    290.33465     258.7643    -425.2349    209.23061 
    8150    290.30018    258.73358    -427.0363    174.95329 
    8160    277.85685    247.64331   -427.42253    -13.42784 
    8170    292.27116    260.49024   -426.70078    1.6482178 
    8180     286.8111     255.6239   -425.47033    104.87585 
    8190    278.10662    247.86592   -423.64318    267.43284 
    8200    285.71876    254.65033   -420.84787    103.63147 
    8210    279.08986    248.74225   -417.08966    131.78096 
    8220    297.01734    264.72033   -412.46942    411.39573 
    8230    316.09198    281.72083   -407.77233    563.09875 
    8240    307.86631     274.3896   -404.29581    532.63438 
    8250     300.8664    268.15085   -401.80734    434.94244 
    8260    300.77741    268.07154   -399.57049    342.57154 
    8270    309.45657    275.80694   -397.44543    369.24058 
    8280    314.45175    280.25896   -395.99512       220.98 
    8290    294.27673    262.27773   -395.37778     213.0305 
    8300    311.29226    277.44303   -394.62748    79.601345 
    8310    318.30163    283.69021   -394.52468    128.26366 
    8320    316.29699    281.90355   -395.89834    361.76444 
    8330    315.11083    280.84637   -399.12444    280.80486 
    8340    291.16059    259.50043   -404.06064    159.30491 
    8350     292.7382    260.90649   -409.92242    316.63739 
    8360    282.51689    251.79663   -416.20298    270.57887 
    8370    280.04092    249.58989   -422.01572    258.64664 
    8380    277.92491    247.70397   -426.67714    119.41043 
    8390    277.37618     247.2149    -429.8499    138.14849 
    8400    286.38165    255.24114   -431.65651    133.40471 
    8410    302.48191    269.59069   -432.73783     40.55561 
    8420    294.81296    262.75564   -433.84794    272.64907 
    8430    285.66948    254.60641   -434.69024     376.4833 
    8440    287.45808    256.20053   -434.77841    325.25601 
    8450    295.20744    263.10723   -433.85125    217.55358 
    8460    283.00026    252.22743    -431.6592    303.03861 
    8470    294.32078    262.31699   -427.19245    244.81768 
    8480    308.07163     274.5726   -419.62061    176.46514 
    8490    317.66462    283.12247   -411.12308    189.59803 
    8500    321.72861    286.74455   -403.85966    215.31395 
    8510    327.26175    291.67603   -398.82798    197.90687 
    8520      327.957    292.29568   -396.23983    227.89606 
    8530    329.06104    293.27967   -396.09493    290.38135 
    8540    319.66541     284.9057   -397.94643     251.6275 
    8550    306.13861    272.84977   -401.23078    125.28194 
    8560    293.65614    261.72462   -404.89013    248.51214 
    8570    305.35777    272.15384   -408.33908    329.49738 
    8580    314.04216    279.89391   -412.23858     239.5814 
    8590     297.5383    265.18465   -416.95051    225.56987 
    8600    293.93094    261.96954   -421.31063    328.45531 
    8610     305.6815    272.44236   -425.20676    416.64086 
    8620    311.82216    277.91531   -429.43034    359.70318 
    8630    299.29726    266.75234   -433.87181     42.63529 
    8640    286.76392    255.58184     -437.445    169.51029 
    8650    298.22643    265.79795   -439.85583    214.94792 
    8660    295.65927    263.50994   -441.51555    226.92786 
    8670    283.97968    253.10035   -442.52842    155.41208 
    8680    275.77945     245.7918   -442.31604   -44.107593 
    8690    284.54832    253.60716   -440.88802   -33.536928 
    8700    283.63369    252.79199   -438.82008      292.755 
    8710    303.39806    270.40722   -436.38797    322.36923 
    8720    303.10358    270.14476   -434.62201     484.9139 
    8730    290.69313     259.0838   -433.39056    534.81315 
    8740    313.53048    279.43787   -432.14998    439.05701 
    8750     313.2239    279.16462   -431.78523    406.62858 
    8760    307.07657    273.68574   -432.48339    510.90512 
    8770    300.13934    267.50285   -433.55687    411.80126 
    8780    312.41898    278.44723   -434.71924     310.9281 
    8790    296.43934    264.20518   -436.29706    378.30855 
    8800     297.4378    265.09507   -437.84614    410.05169 
    8810    297.41847    265.07784   -439.11646     258.2277 
    8820    313.90613    279.77267   -440.57339     387.5407 
    8830    294.98367     262.9078   -442.73827    444.35123 
    8840    300.25156    267.60287   -445.31571    330.86755 
    8850    288.47507    257.10693   -448.19568    398.55127 
    8860    289.84885    258.33133   -451.40506    463.04392 
    8870    291.23915    259.57045   -455.00435    491.95322 
    8880    286.84613    255.65511   -459.42115    405.56876 
    8890    277.38295    247.22094   -464.43454    322.30226 
    8900    266.32478    237.36521    -468.9897    35.999713 
    8910    266.00054    237.07623   -472.20056   -93.514344 
    8920    268.05305    238.90555   -473.67065    94.717459 
    8930    283.48455    252.65907   -473.31704    219.36453 
    8940    289.98892    258.45617   -471.50455     130.3386 
    8950    284.75419    253.79064   -468.50141    184.69931 
    8960    290.29332    258.72746   -463.91674    182.29708 
    8970    300.63705    267.94644   -457.85369    165.38355 
    8980    316.18104    281.80021   -451.32568    263.66983 
    8990    322.82873    287.72505   -445.93947    272.84946 
    9000     320.0076    285.21068   -442.56518    392.56464 
    9010    312.44012    278.46607   -440.83897    477.04243 
    9020    315.24719     280.9679    -440.2919    515.81559 
    9030    311.43739    277.57238   -440.81985     339.0006 
    9040    300.63547    267.94503   -442.12748    584.83773 
    9050    310.03518    276.32263   -443.87508     672.2556 
    9060    308.36997     274.8385    -446.4393    602.97364 
    9070    310.63614    276.85825   -450.34526    308.16964 
    9080    309.64981    275.97917    -456.1518   -64.945455 
    9090    280.64392    250.12731   -463.42419    -213.9597 
    9100    266.88061     237.8606   -469.92706   -296.93912 
    9110    276.09649    246.07436   -474.64375   -223.99984 
    9120    285.97122    254.87534   -477.90299   -71.866032 
    9130    266.85999    237.84222   -479.76736    101.60368 
    9140    272.40246    242.78202   -479.76249    75.873346 
    9150    279.29538    248.92542    -477.8906    215.89442 
    9160    270.75008    241.30931   -474.20853    410.41652 
    9170    279.91994    249.48206   -468.14022    628.48633 
    9180    295.66808    263.51779   -459.84321    372.78037 
    9190    302.72159    269.80432   -451.77309    215.41374 
    9200    308.17485     274.6646   -446.24704    245.47963 
    9210    300.71706    268.01775   -443.62834    456.46741 
    9220    296.31403    264.09349   -442.41304    483.10698 
    9230     295.7181    263.56237   -441.43049    539.45712 
    9240    308.15542    274.64728   -440.47236    524.88157 
    9250    311.65473    277.76608   -440.12648     480.6502 
    9260    315.64505    281.32251   -440.64748    367.26965 
    9270    298.87289    266.37411   -442.14594     144.7137 
    9280     297.2724    264.94765   -443.68268    81.550838 
    9290    303.58572    270.57448   -445.12854    105.54575 
    9300    313.86917    279.73973    -447.0415    72.969176 
    9310    297.24526    264.92347    -449.7986    32.220083 
    9320    308.32251     274.7962   -452.82499    154.29879 
    9330    297.43306    265.09085    -456.3819    222.53237 
    9340    289.03668    257.60747   -459.81621    343.23053 
    9350    300.85703     268.1425   -462.93973    322.75636 
    9360    293.88257    261.92642   -466.00597    477.24128 
    9370    295.46511    263.33689   -468.92354     475.5338 
    9380    299.55746    266.98424   -471.68346    393.59063 
    9390    297.23587     264.9151   -474.57609    386.88473 
    9400    294.29971    262.29821   -477.69906    398.99064 
    9410    271.64403    242.10606   -480.25562    334.25678 
    9420    266.93431    237.90846   -481.27419    171.01652 
    9430    276.95908    246.84316   -480.26451    316.13394 
    9440    280.62549     250.1109   -477.15227    406.33997 
    9450    277.16532    247.02697   -471.69624    297.44814 
    9460    298.13318    265.71483   -463.49472    72.265428 
    9470    305.45332      272.239   -454.43585    84.811467 
    9480    300.74367    268.04147   -447.33674    143.87194 
    9490    301.66738    268.86473   -442.39396    277.07164 
    9500    307.38005    273.95622   -439.14632    235.50361 
    9510    312.22591    278.27516   -437.27886     205.6454 
    9520    325.56588    290.16456   -436.78277    172.18728 
    9530     308.2111     274.6969   -437.84083    185.27127 
    9540    302.95805    270.01506    -439.4587    42.465873 
    9550    302.37249    269.49317   -441.21281    17.717405 
    9560    296.13733    263.93601   -442.98733    224.39153 
    9570    299.35015    266.79947   -444.60917    255.90046 
    9580    301.20276    268.45063   -446.23385    327.86872 
    9590    296.44481    264.21005   -447.94052    377.36473 
    9600    290.26692    258.70394   -449.47461     364.9365 
    9610    300.79448    268.08675   -450.82484    373.51674 
    9620     288.6777    257.28753   -452.10721    284.86226 
    9630    298.49566     266.0379   -453.15442    189.87879 
    9640    308.92092    275.32954   -454.42879     189.2181 
    9650     290.8642    259.23627   -456.60164    468.12742 
    9660    287.93716    256.62751   -459.04609    523.93234 
    9670    280.87906    250.33689   -461.22753    455.00322 
    9680    295.71304    263.55786   -462.79951    479.67529 
    9690    307.37167    273.94875   -464.56063    578.99731 
    9700    293.95367     261.9898   -467.19711    608.67343 
    9710    287.02401    255.81365   -469.90882    412.37818 
    9720    281.95337    251.29438   -472.26276     135.5614 
    9730    271.87302    242.31014   -473.53255    262.62977 
    9740    280.63878    250.12273   -473.08006    323.18419 
    9750    287.33351     256.0895   -471.06018    355.98571 
    9760    298.52453    266.06363   -467.72275    243.22823 
    9770    302.98551    270.03954   -463.59668    139.39106 
    9780    299.85664    267.25089   -459.23857    279.07148 
    9790    297.82841     265.4432   -454.55634    176.42397 
    9800    315.12865    280.86226   -449.52751    41.954059 
    9810    308.65666    275.09402   -445.30234    183.02134 
    9820    315.79499    281.45614   -441.98299    139.34138 
    9830    304.04174    270.98091    -439.5552    162.51873 
    9840    311.87294    277.96056   -437.66238    283.82765 
    9850     321.9365    286.92984   -436.57782    134.55955 
    9860    313.49776     279.4087   -436.86682    329.53486 
    9870    319.81289    285.03714   -438.54301    429.43236 
    9880    311.30246    277.45211   -442.15387    389.67821 
    9890    302.44794    269.56042   -447.88057    267.66714 
    9900    290.12984    258.58176   -454.98327      60.5997 
    9910    289.39016    257.92251   -462.51049    -48.51143 
    9920    291.57512    259.86989   -469.64743    103.83822 
    9930    270.99433      241.527   -474.96272    207.03159 
    9940    280.82287    250.28681   -477.77667    221.17545 
    9950    281.02995    250.47137   -478.79104    101.68405 
    9960    275.13708    245.21928   -478.40298    152.65351 
    9970    283.29646    252.49143    -476.8025    179.53132 
    9980    282.64118     251.9074   -474.47463    193.70594 
    9990    291.76922    260.04288   -471.64867    218.43576 
   10000    304.13416    271.06328   -468.96438    296.70492 
Loop time of 12.3413 on 1 procs for 10000 steps with 300 atoms

Performance: 596.269 ns/day, 0.040 hours/ns, 810.287 timesteps/s
97.9% CPU use with 1 MPI tasks x no OpenMP threads

MPI task timing breakdown:
Section |  min time  |  avg time  |  max time  |%varavg| %total
---------------------------------------------------------------
Pair    | 11.025     | 11.025     | 11.025     |   0.0 | 89.33
Neigh   | 0.79308    | 0.79308    | 0.79308    |   0.0 |  6.43
Comm    | 0.099903   | 0.099903   | 0.099903   |   0.0 |  0.81
Output  | 0.32018    | 0.32018    | 0.32018    |   0.0 |  2.59
Modify  | 0.073357   | 0.073357   | 0.073357   |   0.0 |  0.59
Other   |            | 0.02996    |            |       |  0.24

Nlocal:    300 ave 300 max 300 min
Histogram: 1 0 0 0 0 0 0 0 0 0
Nghost:    1315 ave 1315 max 1315 min
Histogram: 1 0 0 0 0 0 0 0 0 0
Neighs:    13112 ave 13112 max 13112 min
Histogram: 1 0 0 0 0 0 0 0 0 0
FullNghs:  26224 ave 26224 max 26224 min
Histogram: 1 0 0 0 0 0 0 0 0 0

Total # of neighbors = 26224
Ave neighs/atom = 87.4133
Neighbor list builds = 658
Dangerous builds = 0
unfix nvt

fix nve all nve
run ${Nrun0}
run 10000
Per MPI rank memory allocation (min/avg/max) = 4.171 | 4.171 | 4.171 Mbytes
Step Temp KinEng TotEng Press 
   10000    304.13416    271.06328   -468.96438    296.70492 
   10010    291.76087    260.03543   -468.92859    337.76827 
   10020    304.97562    271.81324   -468.96069    151.86616 
   10030    303.15016    270.18628   -468.94337    62.392749 
   10040    297.39712    265.05881   -468.95383    337.81165 
   10050    278.80521    248.48855   -468.91967    411.94601 
   10060    283.38363    252.56912   -468.89309    320.16328 
   10070    298.78217    266.29326   -468.96856    344.26064 
   10080     298.8646    266.36672   -468.95947    247.46144 
   10090     292.3345    260.54669   -468.92712    326.65313 
   10100    297.99756    265.59396   -468.94726    279.40912 
   10110    307.29931    273.88426   -468.94843    207.90255 
   10120    302.34092    269.46504   -468.94095    173.62953 
   10130    291.88993    260.15046   -468.93547     277.9318 
   10140    297.14639    264.83535   -468.94094    232.72148 
   10150    299.53056    266.96027   -468.97085    316.96389 
   10160    296.87271    264.59143   -468.95536    403.32116 
   10170    309.12457    275.51105   -468.97858    407.74187 
   10180    301.48338    268.70074   -468.95092    329.85339 
   10190    305.94278    272.67523   -468.96761    434.66156 
   10200    315.47951    281.17496    -468.9803    418.48449 
   10210    301.41806    268.64252   -468.96567    265.43309 
   10220    289.11159    257.67424   -468.95005    142.48096 
   10230    303.10567    270.14663   -468.94492     131.3918 
   10240    311.74487    277.84642   -468.96244    264.93624 
   10250    302.42946    269.54395   -468.96955    469.02946 
   10260     301.3648    268.59506   -468.95379     271.1161 
   10270    311.52232    277.64807    -468.9724    287.01447 
   10280     304.4816    271.37294   -468.93233    276.59244 
   10290    309.49655    275.84257   -468.97832    303.87564 
   10300    297.49235    265.14369   -468.92882    300.93038 
   10310    312.00339    278.07683   -468.97831    344.69478 
   10320    311.10936    277.28001   -468.94279     272.6007 
   10330    324.29958    289.03596   -468.97677    104.00256 
   10340    308.74255    275.17056   -468.95264    123.23115 
   10350    293.93222    261.97068   -468.96237    235.73953 
   10360    293.25097    261.36351   -468.97389    97.736493 
   10370    302.22687    269.36339   -468.97318    92.354732 
   10380    315.56207    281.24855   -468.98935    234.30339 
   10390    312.66639    278.66773   -468.95699    514.65921 
   10400    325.60348    290.19808   -468.97954    524.23183 
   10410    318.92228    284.24337   -468.96852    568.30379 
   10420    310.84312    277.04273   -468.97238    588.86283 
   10430      320.824     285.9383   -468.98356    598.91347 
   10440    314.64636    280.43241   -468.96748    629.77495 
   10450    309.64051    275.97089   -468.99059    486.85003 
   10460    305.06218    271.89039    -468.9692    315.83666 
   10470    307.73678    274.27416    -468.9525    15.345658 
   10480    309.01426    275.41273   -468.94441    85.098897 
   10490    312.23622    278.28434   -468.98394    104.80889 
   10500    296.35241     264.1277   -468.91834    211.50882 
   10510    303.62362    270.60825   -468.96223    113.35226 
   10520    308.78135    275.20515   -468.95413    72.346329 
   10530    312.73449    278.72843   -468.93238    336.69185 
   10540    317.05462     282.5788   -468.96852    351.35482 
   10550    301.46352    268.68304   -468.95578     314.4274 
   10560    299.71561    267.12519   -468.96257    171.51279 
   10570    304.34834    271.25417   -468.96291    214.11184 
   10580    303.78662    270.75353   -468.95777    407.00233 
   10590    315.00164    280.74905    -468.9615    483.33997 
   10600    319.84628     285.0669   -468.97753    536.07244 
   10610     302.2622    269.39487   -468.92416    666.29122 
   10620    315.35859    281.06719   -468.98714    589.04157 
   10630    305.42522    272.21395    -468.9497    442.88239 
   10640    291.85567    260.11992   -468.95569     233.0875 
   10650    283.90488    253.03369   -468.93291    144.45403 
   10660    294.11486    262.13346   -468.95345    387.56358 
   10670    298.48441    266.02787   -468.96066    500.57167 
   10680    293.87645    261.92097   -468.92396    403.57549 
   10690    298.80537    266.31393   -468.95347     362.3619 
   10700    302.67535     269.7631    -468.9812    318.36357 
   10710    296.24147    264.02883   -468.93515    222.45206 
   10720     295.2939    263.18429   -468.96886    149.83755 
   10730    280.90824    250.36289   -468.92898     165.3065 
   10740    299.56516    266.99111   -468.99496    298.53644 
   10750    294.35579    262.34819   -468.94709     284.2929 
   10760    293.87771     261.9221    -468.9722    410.39849 
   10770    296.85475    264.57542   -468.96543    366.33226 
   10780    309.28585    275.65479   -468.96688    370.37738 
   10790    314.23514    280.06591   -468.99095    424.59036 
   10800    300.31936    267.66329   -468.96208    573.62152 
   10810    298.36226      265.919    -468.9587    597.36185 
   10820    302.47638    269.58576    -468.9594    330.39438 
   10830    291.24497    259.57563   -468.90945    354.72714 
   10840    297.93011    265.53384   -468.97211    371.03554 
   10850    287.84843    256.54843   -468.93533    350.20687 
   10860    294.09546    262.11617    -468.9487    256.44766 
   10870    302.31473    269.44169   -468.97146    165.64564 
   10880    305.32029    272.12044   -468.92771    147.05899 
   10890    318.05588    283.47119   -468.99658    202.63757 
   10900    293.66343    261.73112   -468.93419    141.20582 
   10910    304.03547    270.97532   -468.98745    143.72173 
   10920     299.5915    267.01458   -468.95266    252.23671 
   10930     290.3468    258.77513   -468.93389    333.91357 
   10940    290.87068    259.24205   -468.94555    50.853774 
   10950    288.38727    257.02868   -468.92181   -6.6296281 
   10960     298.1999     265.7743   -468.95565    191.09949 
   10970     297.5484    265.19365   -468.95361     284.6444 
   10980    301.21829    268.46447   -468.95745     452.9183 
   10990    301.15027    268.40385   -468.97568    474.97906 
   11000    303.04263    270.09044    -468.9991    461.61839 
   11010    310.75721    276.96615   -468.95146    323.46763 
   11020    306.26982    272.96671   -468.94937    365.58258 
   11030    305.95843    272.68918   -468.96956    489.39636 
   11040    295.85782    263.68689   -468.97165    495.65589 
   11050    300.16874    267.52905   -468.96015    459.49828 
   11060    303.69221    270.66939   -468.96964    567.54001 
   11070    305.55603    272.33054   -468.97072    361.09558 
   11080    294.68761    262.64393   -468.96725    302.72072 
   11090     284.1362    253.23986   -468.94745    330.08244 
   11100    288.89829    257.48413    -468.9425    357.14263 
   11110    295.90669    263.73045      -468.96    333.47693 
   11120    303.99072    270.93544   -468.96807    196.98217 
   11130     299.7234    267.13214   -468.95113   -72.504794 
   11140    297.33256    265.00127   -468.94372   -118.92402 
   11150    301.91575     269.0861   -468.96851   -1.3636241 
   11160    293.74808    261.80656   -468.94478    117.64899 
   11170    292.63811    260.81729   -468.97177    263.65915 
   11180    288.07383    256.74932   -468.94529     446.3768 
   11190    304.35142    271.25692    -468.9702    270.17814 
   11200     307.7597    274.29459   -468.96866    151.72723 
   11210    293.93268    261.97109   -468.94426    385.35111 
   11220    287.35656    256.11004   -468.93557    468.05451 
   11230    297.30039     264.9726   -468.98208     515.2312 
   11240    298.77746    266.28906   -468.99026    303.46074 
   11250    287.47643    256.21688   -468.97469    377.26231 
   11260    300.97401    268.24676   -469.01689    390.60877 
   11270    300.33064    267.67335   -468.96164     358.1022 
   11280    306.99251    273.61082   -468.99414     421.7159 
   11290    304.96596    271.80464   -468.95226    275.65702 
   11300    313.32634    279.25592   -468.99315    192.23469 
   11310    304.26702     271.1817   -468.96144    170.95538 
   11320    301.50347    268.71864   -468.96562    260.10372 
   11330    301.39859    268.62517   -468.98502    476.03251 
   11340    289.27335    257.81841   -468.95546    465.59303 
   11350    291.13001    259.47318   -468.95283    417.89647 
   11360    291.37847    259.69462    -468.9777    344.60207 
   11370    288.38372    257.02551   -468.98274    467.13688 
   11380    288.32559     256.9737   -468.96754    452.23386 
   11390    280.02932    249.57955    -468.9667    469.24441 
   11400    289.56547    258.07876   -468.97874    205.79846 
   11410    292.05445    260.29709   -468.97496    156.33259 
   11420     296.0099    263.82243   -468.96473    177.56141 
   11430    299.81359    267.21252   -468.96332     204.4488 
   11440     287.3183    256.07594   -468.93117    127.10058 
   11450    286.22719    255.10347   -468.94578    140.23693 
   11460    285.76019    254.68726   -468.93335     176.8755 
   11470     291.0703    259.41996   -468.94578    282.93165 
   11480    289.19808    257.75132    -468.9508    207.84643 
   11490    286.63682    255.46856   -468.95422    238.33764 
   11500    283.51162    252.68319   -468.94832     153.2303 
   11510    292.95043    261.09565   -468.97507    277.45636 
   11520    298.29749    265.86128   -468.97964    355.83443 
   11530    289.27463    257.81955   -468.96219    479.12177 
   11540    302.21282    269.35087   -468.98748    579.48638 
   11550    298.75797    266.27169   -468.95257    594.26202 
   11560    308.09777     274.5959   -468.98657    586.10019 
   11570    300.74361    268.04141   -468.98804    496.75011 
   11580    277.15833    247.02075   -468.92667    470.75421 
   11590    302.90183    269.96495   -469.02135    202.52105 
   11600    297.52024    265.16855   -468.93862    341.18439 
   11610    309.11364     275.5013   -468.97579    321.29537 
   11620    301.02039    268.28809   -468.96938     314.8941 
   11630    290.04384    258.50511    -468.9438    287.19273 
   11640    296.11415    263.91535   -468.96359    343.53413 
   11650     295.1033    263.01442   -468.92358    364.02667 
   11660    310.67321    276.89129   -468.96961    314.50732 
   11670    296.13301    263.93216   -468.94302    290.93002 
   11680    286.95418    255.75141   -468.95062    379.90257 
   11690    279.62145    249.21603   -468.93144    431.83595 
   11700    278.65045    248.35061   -468.94542    273.53704 
   11710    281.27286    250.68787    -468.9346    204.62723 
   11720    289.15442    257.71241   -468.96365    131.77662 
   11730    283.78372     252.9257   -468.94148    242.84814 
   11740    290.87602     259.2468   -468.94661    83.007607 
   11750    302.36861    269.48971   -468.98268    84.712496 
   11760    294.65896     262.6184   -468.94197     22.54314 
   11770    299.52634    266.95651   -468.95213    208.98938 
   11780    292.67283    260.84823   -468.93942    395.17367 
   11790     300.8334    268.12144   -468.97472    479.25743 
   11800    304.94939    271.78987   -468.98301     446.5459 
   11810    304.85985    271.71006   -468.98348    572.06451 
   11820     293.4919    261.57824   -468.96947    629.21905 
   11830    291.24491    259.57558    -468.9956    577.81006 
   11840    286.97871    255.77328   -468.95622    635.29532 
   11850    290.25398     258.6924   -468.95647    443.16986 
   11860    299.83363    267.23039    -468.9799    407.75836 
   11870    289.47522    257.99833   -468.94132    549.49764 
   11880    292.35288    260.56307   -468.96201    508.07031 
   11890    290.61131    259.01088   -468.95529    337.03059 
   11900    290.52557    258.93446   -468.96521    314.08139 
   11910    295.68356    263.53158   -468.96125    359.39261 
   11920     300.1989    267.55593   -468.95776    260.15866 
   11930    297.56783    265.21096   -468.95015    247.47836 
   11940    298.66213    266.18627   -468.96871    156.48543 
   11950    297.47712    265.13011   -468.96358    129.53462 
   11960    289.47838    258.00114   -468.95428    294.32203 
   11970     291.5359    259.83493   -468.95598    269.44622 
   11980    289.41472     257.9444   -468.96728    226.75843 
   11990    283.41892    252.60057   -468.93705    256.24884 
   12000    294.50977    262.48543   -468.97075    220.02159 
   12010    286.73812    255.55885   -468.95223    352.13656 
   12020     283.4073    252.59021   -468.96487     430.5157 
   12030    294.16884    262.18157   -468.99099    406.24071 
   12040     277.5957    247.41055   -468.89926     472.2369 
   12050    291.83415    260.10075   -468.96991    279.89395 
   12060    277.36568    247.20554   -468.94965    329.08613 
   12070    279.84652    249.41662    -468.9704    450.73173 
   12080    274.08895    244.28512   -468.93837    387.88767 
   12090    284.80062    253.83203   -468.97773     419.1626 
   12100    288.65331    257.26579   -468.97288     307.9032 
   12110     278.6916    248.38729   -468.95774    201.81164 
   12120    280.22998    249.75839   -468.97343    322.54792 
   12130    295.85462    263.68404   -468.99312    355.46677 
   12140    293.39775    261.49432    -468.9444    386.53792 
   12150    299.24353    266.70445   -468.98214    386.70861 
   12160    293.48178    261.56922   -468.93885    303.90997 
   12170    307.91902    274.43658    -468.9815    154.18791 
   12180    297.83429    265.44845   -468.94563    235.41103 
   12190     299.3852    266.83071   -468.96572    259.44527 
   12200    299.41408    266.85645   -468.96608    285.21762 
   12210    285.86622    254.78176   -468.95012    364.25499 
   12220    288.20844    256.86929   -468.98529    307.76719 
   12230    281.08055    250.51647   -468.95618    399.04959 
   12240    284.87016    253.89401   -468.96604    388.97699 
   12250    289.83743    258.32115   -468.94604    392.14505 
   12260    302.82292    269.89463   -468.98468    260.43509 
   12270    297.45985    265.11472   -468.92849    226.91113 
   12280    300.92954    268.20713   -468.98518    255.11181 
   12290    284.23434    253.32732    -468.9427    341.98758 
   12300     280.5142    250.01171   -468.94713    291.61319 
   12310    283.92851    253.05475   -468.95634     224.3557 
   12320    281.97474    251.31343   -468.95126    390.57139 
   12330    291.19303    259.52935   -468.98836     600.4722 
   12340    288.14965     256.8169     -468.972     567.9754 
   12350     286.2005    255.07969   -468.95788    413.85745 
   12360    286.24459    255.11899   -468.95079    307.62512 
   12370    298.55253    266.08858   -468.98334    239.57193 
   12380    300.58726    267.90207   -468.96709    328.05609 
   12390    299.31274    266.76614   -468.95109    72.586398 
   12400    301.45051    268.67145   -468.94025   -212.91024 
   12410    304.79502    271.65228   -468.99298    59.621606 
   12420    293.81159    261.86317   -468.92683    279.34807 
   12430    306.36145    273.04839   -468.97971    184.64825 
   12440    290.45185    258.86876   -468.92303    73.553266 
   12450    305.01412    271.84755   -468.98807    169.60984 
   12460    312.28597    278.32868   -468.98209    354.07665 
   12470    306.82044    273.45746   -468.96904    429.72824 
   12480    310.08212    276.36447   -469.02837    367.16556 
   12490    291.36364     259.6814    -468.9712    387.54922 
   12500    291.67999    259.96335    -468.9786    427.37167 
   12510    298.86986    266.37141   -468.98437     502.4004 
   12520    304.14383     271.0719   -469.01006    482.65657 
   12530    299.84196     267.2378   -468.96505    391.95256 
   12540    298.06975     265.6583   -468.91526    428.60607 
   12550    307.12055    273.72494   -468.99198    272.35903 
   12560    294.53004    262.50349   -468.99127    184.52971 
   12570    293.56666    261.64487   -468.96209    41.295956 
   12580    290.73329    259.11959   -468.95945   -71.825049 
   12590    276.98319    246.86465   -468.96323    142.83318 
   12600    291.00143    259.35858   -468.98078    163.32926 
   12610    300.90524    268.18547   -468.95093    114.10181 
   12620    305.12838    271.94939   -468.97998      192.231 
   12630    298.62625    266.15429   -468.96621    361.56037 
   12640    283.25623    252.45557   -468.95295    292.82692 
   12650    294.73171    262.68323   -468.99138     377.2766 
   12660    291.95251    260.20623   -468.95674    557.24978 
   12670    307.04316    273.65596   -468.99121    496.65799 
   12680    307.21087    273.80544    -468.9925    479.00704 
   12690    292.15507    260.38677   -468.97456    589.02026 
   12700    295.53558    263.39969   -468.98283    406.12725 
   12710    297.48109    265.13365   -468.97323    320.60516 
   12720    292.87596    261.02928   -468.95968    295.20211 
   12730    299.00706    266.49369   -468.97052    242.42859 
   12740    305.59155    272.36219   -469.00841     335.5569 
   12750    286.87237     255.6785   -468.94419     379.1655 
   12760       298.11    265.69417   -469.02096     291.7898 
   12770    285.62771    254.56918   -468.97247    262.78474 
   12780    298.17966    265.75626   -469.00311    263.27223 
   12790    294.44878    262.43106    -468.9515    506.77577 
   12800    296.28467    264.06733   -468.99297     431.2468 
   12810    285.95584    254.86163   -468.95536    383.46238 
   12820    296.50808    264.26644   -469.02646    463.33688 
   12830    293.86058    261.90683   -468.99896    425.60146 
   12840    292.44807    260.64791   -468.97292    472.00169 
   12850    297.49834    265.14902   -468.97657    413.78273 
   12860    298.03741    265.62948   -468.95439    424.09464 
   12870    302.48485    269.59331   -468.95627    315.80356 
   12880    300.77817    268.07222   -468.96806    275.94104 
   12890    294.48641     262.4646   -468.96514    319.44903 
   12900    295.22726     263.1249   -468.96238    301.65098 
   12910    291.93573    260.19128    -468.9685       223.12 
   12920    287.41095    256.15852   -468.95734    97.690147 
   12930    299.69767    267.10921    -468.9843    194.16461 
   12940    290.28084    258.71635   -468.96602    329.72693 
   12950    283.91316    253.04107     -468.952    465.89813 
   12960    290.98652    259.34528   -468.97247    392.66105 
   12970    293.17464    261.29547   -468.95029     333.3915 
   12980    298.51625    266.05625     -468.986    286.47226 
   12990    296.11386    263.91509     -468.948    196.96474 
   13000    309.30035    275.66771   -468.98755    198.00303 
   13010     300.6496    267.95762   -468.95031    248.21116 
   13020    309.83889    276.14769    -468.9799    155.25228 
   13030    311.63485    277.74836   -468.99705    94.072063 
   13040    304.77608     271.6354   -468.97643    245.14574 
   13050    307.16518    273.76471   -468.99912    441.67035 
   13060    297.32175    264.99164   -468.97913     466.3382 
   13070    288.39776    257.03802   -468.96304    350.66656 
   13080    294.52749    262.50122   -468.99517    449.28754 
   13090    293.37047    261.47001   -468.97687      424.545 
   13100    300.56944    267.88618   -469.00436    479.82971 
   13110    299.11469    266.58962   -468.99331    369.94973 
   13120    310.94239     277.1312   -469.02957    397.99668 
   13130    308.02402    274.53017   -468.99388    415.26369 
   13140    295.05171    262.96844   -468.97537    573.31026 
   13150    306.47605    273.15052   -469.02451    400.48829 
   13160    296.53464    264.29011   -468.98602    252.80372 
   13170    292.57841    260.76408   -468.98626    258.55473 
   13180    304.22183    271.14142   -469.01575     392.9845 
   13190    292.71788    260.88838   -468.96822    462.84627 
   13200    301.99589    269.15752   -469.00134    303.61427 
   13210    303.86552    270.82386   -468.97398    364.05625 
   13220    304.31045    271.22041   -468.99736    422.24476 
   13230    291.30415    259.62838   -468.97519    329.65736 
   13240    301.96759     269.1323   -469.00457    205.24427 
   13250    304.29457    271.20625   -468.98084    194.40908 
   13260    304.91895    271.76274   -468.98837    166.75717 
   13270    296.35493    264.12995   -468.98086      252.425 
   13280     291.2678    259.59598   -468.99077    481.24886 
   13290    280.53931    250.03408   -468.95807    498.46704 
   13300    299.87361    267.26602   -469.01808    312.58084 
   13310    304.33421    271.24158   -468.98185    260.97007 
   13320    296.11501    263.91611   -468.99996    301.53311 
   13330    279.86346    249.43172   -468.96669    297.41927 
   13340    292.91587    261.06484   -468.97988    386.28657 
   13350    302.08693    269.23866   -468.98735    456.67056 
   13360    298.95516    266.44744   -468.99215    524.90872 
   13370    292.35041    260.56088   -468.96603    523.94638 
   13380    302.61819    269.71216   -468.99937    373.32753 
   13390    300.19091    267.54881   -469.00065    209.34399 
   13400    294.18962    262.20009   -468.99262    169.51739 
   13410    292.09526    260.33347    -468.9601    199.60848 
   13420    307.42822    273.99916   -468.99554    66.964911 
   13430    300.16087    267.52204   -468.98002    219.40111 
   13440    301.58224    268.78885   -468.99473    300.80713 
   13450    297.72728    265.35308   -468.96578    514.61603 
   13460     304.1203    271.05093   -468.97841    599.25591 
   13470    316.88712    282.42951   -469.01275    519.32884 
   13480    306.60216    273.26292   -468.97815    557.34312 
   13490    312.15413    278.21118   -469.00082    432.73866 
   13500    304.43628    271.33255   -468.97538    287.22806 
   13510    306.43004    273.10951   -468.98951    165.40357 
   13520    303.35336    270.36738   -468.99879    183.76398 
   13530    301.29302    268.53108   -469.00172    392.68511 
   13540    303.88511    270.84131   -468.99604    551.56425 
   13550    300.66481    267.97118   -469.00913    651.89471 
   13560    303.47296    270.47398   -468.99802    483.11104 
   13570     307.2289     273.8215   -469.02438    548.46828 
   13580    299.04679     266.5291   -468.98592    518.66921 
   13590    299.50697    266.93924   -468.99118    520.10588 
   13600    308.18208    274.67104   -468.99513    229.20281 
   13610    305.69066    272.45054   -468.99329    263.29462 
   13620    295.69106    263.53827   -468.97149    382.19393 
   13630    295.24669    263.14221   -468.97047    418.74262 
   13640    300.66365    267.97014   -469.00565    283.90646 
   13650    290.39741    258.82024   -468.94604     219.1917 
   13660    293.71206    261.77446   -468.97387    361.02967 
   13670    310.32943    276.58489   -469.02218    565.77577 
   13680      295.795    263.63091   -468.97468     667.2411 
   13690    288.69868    257.30623   -468.97473    335.03107 
   13700    301.13653    268.39161   -469.00271    233.03636 
   13710    295.79648    263.63222   -468.99797    408.44314 
   13720    296.99511    264.70052   -468.99722    575.96156 
   13730    304.58431    271.46448   -469.00826    448.74817 
   13740    293.22361    261.33912   -468.99133    540.77534 
   13750    299.33355    266.78468   -469.01203    372.93975 
   13760    305.04464    271.87476   -468.98493     354.0518 
   13770    302.06159    269.21608   -468.97906    431.76986 
   13780    295.22228    263.12046   -468.96536    369.89842 
   13790    300.07333    267.44402   -468.97879    156.71964 
   13800    295.09525    263.00725   -468.96444    203.37627 
   13810    289.36833    257.90306   -468.96311     205.2018 
   13820    290.78155     259.1626   -468.97158    173.96044 
   13830    295.48595    263.35546   -468.96989    213.72577 
   13840    297.68969    265.31957   -468.96487    273.18888 
   13850    297.42381     265.0826   -468.95788     55.51223 
   13860    310.14838    276.42352   -468.99186    68.821781 
   13870    307.88563    274.40683   -468.96743    268.30544 
   13880    304.51173    271.39979   -468.98075    426.16297 
   13890    295.24174     263.1378   -468.96661    507.43113 
   13900    299.86544    267.25874   -468.99928    431.73155 
   13910    294.08428    262.10621   -468.95887    501.32178 
   13920    305.25444    272.06175   -469.04408    552.67935 
   13930     294.2794    262.28011   -468.97953    413.61211 
   13940     301.4959     268.7119   -469.01235    446.49105 
   13950    293.15706    261.27981   -468.95146    507.49337 
   13960    301.42942    268.65265   -469.00626    438.02372 
   13970    294.70317     262.6578    -468.9645    484.74015 
   13980    301.72561    268.91663   -469.00908    349.45254 
   13990    305.74296    272.49715   -468.98069    111.60069 
   14000    308.59382    275.03801   -468.99911   -59.622033 
   14010    305.19947    272.01275   -468.97796    54.762924 
   14020      304.765    271.62553   -468.96862    157.81214 
   14030    309.94002    276.23782   -468.98817    176.22055 
   14040    304.31511    271.22456   -468.96338    205.65033 
   14050    298.54321    266.08028   -468.98176    434.09573 
   14060    301.27041    268.51093   -468.97848    475.21899 
   14070    310.15847    276.43252   -469.01547    362.88357 
   14080    300.94569    268.22152   -468.96713    332.17344 
   14090    306.50225    273.17387   -468.99776    381.79185 
   14100     309.8918    276.19485   -468.96491    317.53248 
   14110    310.41734    276.66325    -468.9987    273.62228 
   14120    297.35187    265.01848   -468.96679    420.04826 
   14130    313.46555    279.37999    -468.9918    198.18889 
   14140    317.07019    282.59268   -468.97889    24.805079 
   14150     301.7049    268.89817   -468.96999    73.286435 
   14160     295.3105    263.19909   -468.95473    95.515122 
   14170    313.10321    279.05706   -469.02208    189.80059 
   14180    298.49184     266.0345   -468.97841    432.90382 
   14190    299.95583     267.3393   -468.97841    355.54883 
   14200    305.02064    271.85336   -468.96237    329.93752 
   14210    306.14426    272.85481    -468.9922    183.61399 
   14220    292.31954    260.53335   -468.95584    240.71284 
   14230    295.62858    263.48258   -468.98561    404.51213 
   14240    309.21927    275.59544   -468.97359    419.94565 
   14250    313.77298      279.654   -469.00213    446.01464 
   14260    304.20785    271.12896   -468.98516    344.93265 
   14270     293.7088    261.77155   -468.96611    166.24239 
   14280    293.15168    261.27501   -468.97189    83.729608 
   14290    301.55393    268.76362   -468.97309    196.65643 
   14300    303.44179     270.4462   -468.97847    243.82148 
   14310    318.04781    283.46399   -468.97681    233.15469 
   14320    319.05755    284.36394    -468.9784    219.42487 
   14330     301.4452    268.66671   -468.97991    254.00137 
   14340    296.69988    264.43739   -468.97351    515.32047 
   14350    306.81051    273.44861   -468.99414    506.25676 
   14360    306.48241    273.15619   -468.97738    421.97151 
   14370    307.52923    274.08918   -469.00695    456.67094 
   14380    301.56777    268.77595   -468.97538    490.40049 
   14390    312.00349    278.07692   -469.00106    445.20515 
   14400    303.80593    270.77074   -468.99074    452.15551 
   14410    292.75416    260.92072    -468.9686    464.14246 
   14420    296.33388    264.11119   -469.00414    369.00593 
   14430    295.79085     263.6272   -468.99065    208.09891 
   14440    300.45044    267.78012   -468.96171    207.96995 
   14450    318.32525    283.71127   -469.02095       345.35 
   14460    305.72979    272.48541   -468.96832    298.54776 
   14470    312.96978    278.93814   -468.99022     164.2511 
   14480    308.44009    274.90099   -468.98445    360.40926 
   14490    297.54023    265.18636   -468.98212    675.63033 
   14500    305.26832    272.07412   -468.99508    514.55799 
   14510    304.46893    271.36165   -468.98053    514.14898 
   14520    303.10745    270.14821   -468.98713    369.48153 
   14530    292.33559    260.54766   -468.96051    112.61187 
   14540    295.08046    262.99406   -468.96834    369.54067 
   14550    313.39082     279.3134   -469.00767    571.92825 
   14560    317.38967    282.87742   -468.99468    589.96075 
   14570    306.62979    273.28755   -468.95123    492.17717 
   14580    314.90683    280.66456   -468.99382    304.16036 
   14590    316.66501    282.23156   -468.99798    376.15205 
   14600    308.38173    274.84898    -468.9778    488.12909 
   14610    311.85395    277.94363   -469.00834    515.72054 
   14620    301.74984    268.93823   -468.96938    490.39986 
   14630    306.51047     273.1812   -468.99278    455.46016 
   14640    296.88691    264.60408   -468.96538    225.70256 
   14650    304.15623    271.08295   -468.99777    268.89325 
   14660    301.70379    268.89719   -468.94635    198.68013 
   14670    311.28216    277.43402   -468.98304    126.91013 
   14680    307.86153    274.38534   -468.95311    12.361673 
   14690    307.51171    274.07357     -468.938   -43.698577 
   14700      310.915    277.10679   -468.96777    170.84364 
   14710    300.19751     267.5547   -468.93204    336.60207 
   14720    305.63683    272.40255   -468.98836    364.50777 
   14730    307.01663    273.63232   -468.96611    398.56647 
   14740    306.21431    272.91724   -468.99382    413.77447 
   14750    295.35147    263.23561   -468.96124    542.58778 
   14760    311.59335    277.71138   -468.99556    549.01572 
   14770    307.90621    274.42517   -468.95062    742.52186 
   14780    318.21383    283.61196   -469.00005    541.96579 
   14790    306.82895    273.46504   -468.98024    470.35056 
   14800    299.04246    266.52524   -468.97828    585.50431 
   14810    306.73033    273.37715   -469.00766    653.77708 
   14820    305.94239    272.67489   -468.97614    588.14925 
   14830    304.50672    271.39533   -468.98368    471.32887 
   14840    293.88878    261.93196   -468.96172    470.67186 
   14850    306.33668    273.02631   -468.99006    330.72626 
   14860    300.89797    268.17898   -468.94779    266.93602 
   14870    303.34987    270.36427   -468.97249    190.78682 
   14880    303.45825    270.46087   -468.95965    87.903398 
   14890    302.63828    269.73006   -468.96063    91.356865 
   14900    303.82084    270.78403   -468.97132    129.62877 
   14910    293.06121    261.19438   -468.96672    280.90648 
   14920    295.52506    263.39032   -468.95789     286.4072 
   14930    306.92235    273.54829   -468.96486    286.58165 
   14940    301.68303    268.87868   -468.97697    273.75758 
   14950    296.22887    264.01759   -468.97286    414.26467 
   14960     302.2673    269.39942   -468.97862     439.1792 
   14970    307.81622    274.34497   -469.01219      562.835 
   14980    298.74917    266.26385   -468.95349    778.85054 
   14990    314.32407    280.14517    -468.9919    639.26177 
   15000    316.92776    282.46574   -468.99768    561.32368 
   15010    306.65497    273.30998   -468.95103    479.73838 
   15020    320.31883    285.48807   -468.98581    498.98813 
   15030    317.03961    282.56542   -468.97387    460.01459 
   15040     311.0409      277.219     -468.976    300.14862 
   15050    302.96266    270.01917    -468.9626    43.632456 
   15060    305.43503     272.2227   -468.96295   -20.279181 
   15070    314.91179    280.66898   -468.97034    39.143851 
   15080    311.91882    278.00145   -468.94614    119.80957 
   15090    311.57029    277.69082   -468.99206    172.68215 
   15100    295.80503    263.63985   -468.94544    207.44455 
   15110    310.34637    276.59999   -468.97366    299.30444 
   15120    324.37229    289.10076   -469.00025    358.53801 
   15130    304.16083    271.08705   -468.97123    414.56246 
   15140    299.02331    266.50817   -468.97433    479.17393 
   15150    312.31702    278.35635   -468.98451    533.31134 
   15160    311.16677    277.33118   -469.00319    576.02173 
   15170    303.22387    270.25197   -468.95036    679.84951 
   15180    311.05771    277.23398   -468.98921    597.32873 
   15190    302.97119    270.02677   -468.97487    559.39793 
   15200     303.2527    270.27767   -468.96998    564.79543 
   15210    306.80381    273.44264   -468.96829    476.80983 
   15220    312.68305    278.68258   -468.96663    372.56611 
   15230    314.93643    280.69093   -468.97067    297.99358 
   15240    303.30139    270.32107   -468.94217    90.246008 
   15250    298.72026    266.23808   -468.94662   -186.00259 
   15260    297.99142    265.58849   -468.93853   -157.91956 
   15270     301.1063    268.36466   -468.93317   -179.64741 
   15280    307.07754    273.68661   -468.94985   -15.570856 
   15290    303.11299    270.15315   -468.94779    105.54247 
   15300     296.5146    264.27225   -468.93306    133.68081 
   15310    303.63147    270.61525   -468.98306    227.96216 
   15320    300.30407    267.64967   -468.95494    276.52105 
   15330    307.43244    274.00292   -468.97509    362.19996 
   15340    310.65215    276.87252   -468.97561    510.12541 
   15350    313.44375    279.36057   -468.97123    668.44576 
   15360    312.42693    278.45432   -468.98306    515.23815 
   15370     302.8445    269.91386   -468.94464    401.44595 
   15380    308.21066    274.69651   -468.98184    352.82231 
   15390    304.50861    271.39701   -468.94557    317.64767 
   15400    320.42521    285.58288   -468.99678    182.73987 
   15410    318.08524    283.49735   -468.96511    142.00842 
   15420    307.78775    274.31959   -468.92935    207.92681 
   15430     316.6805    282.24536   -468.98685    181.64606 
   15440    310.59831    276.82454   -468.97135    118.01291 
   15450    308.22747    274.71149   -468.97483    134.55451 
   15460    303.67057    270.65011   -468.93857    272.99516 
   15470     310.0765    276.35947   -468.98498    562.39878 
   15480    315.01604    280.76189    -468.9961    590.99547 
   15490    299.81216    267.21125   -468.95528    579.38823 
   15500     313.3577    279.28387   -468.99988    516.23078 
   15510    311.56501    277.68612   -468.96154    644.92586 
   15520    316.12456    281.74987   -468.96511    574.81829 
   15530    326.58105    291.06934   -468.97855    455.68902 
   15540    318.62535    283.97873   -468.98278    304.76281 
   15550     309.4945    275.84075   -468.94075    149.24509 
   15560    332.19218    296.07034   -469.01129    21.127359 
   15570    314.21916    280.05167    -468.9384    164.46227 
   15580    317.10123    282.62034   -468.97408    227.76393 
   15590    318.22505    283.62196   -468.97963    249.58914 
   15600    321.73457    286.74986    -469.0179    156.76146 
   15610    319.90571    285.11986   -468.95294    250.43411 
   15620    322.27069    287.22768   -468.97369    365.72829 
   15630    317.60683    283.07096   -468.93263    400.60838 
   15640    324.94048    289.60717    -468.9941    476.12433 
   15650     308.3973    274.86285    -468.9499    485.77823 
   15660    321.60394    286.63344   -468.99244    453.51101 
   15670    317.93005    283.35903   -468.97852    430.25988 
   15680    316.88126    282.42429   -468.97964    474.05264 
   15690    309.72083    276.04247   -468.95356    347.22327 
   15700    310.51685    276.75193   -468.98324    380.65627 
   15710    311.43225    277.56779   -468.96718    621.24384 
   15720    321.29533    286.35839   -468.98808    692.98882 
   15730    323.26842    288.11692    -468.9715    536.67449 
   15740    324.31062     289.0458   -468.95039    503.04629 
   15750    326.85168    291.31055   -468.98101    463.92507 
   15760    308.47394    274.93116   -468.95379    359.91241 
   15770    294.64006    262.60155   -468.93579    143.74571 
   15780    305.40286    272.19403   -468.94558    78.791952 
   15790    314.37335    280.18909   -468.93302    229.73652 
   15800    316.32007    281.92412    -468.9499    124.70852 
   15810    324.45804    289.17718    -468.9709    212.91164 
   15820    330.19186    294.28752   -468.96241    233.72177 
   15830     330.9616    294.97357   -468.98709    405.57823 
   15840    313.20263    279.14567   -468.93791    346.63367 
   15850    315.34866    281.05834   -468.96092     370.9721 
   15860    318.66984    284.01839   -468.97292    416.58342 
   15870    315.21324    280.93764   -468.96867    494.28388 
   15880    310.56377    276.79375   -468.94898     603.5212 
   15890    326.55809    291.04888   -468.98563     502.7054 
   15900    321.69329    286.71308   -468.95741    482.58635 
   15910    311.14731    277.31384     -468.946    488.24242 
   15920    321.83371    286.83822   -468.97297    566.91218 
   15930    320.46342    285.61694   -468.95871    452.86848 
   15940    318.08427    283.49649   -468.95742    411.07428 
   15950    315.86514    281.51866   -468.95131    201.23694 
   15960    323.15869    288.01913   -468.97206    170.61579 
   15970    319.89583    285.11106   -468.94288    211.12459 
   15980     319.8551    285.07476   -468.96425    270.07473 
   15990    315.70169    281.37299   -468.94711    312.74955 
   16000    315.43589    281.13608   -468.95431    189.84836 
   16010       322.64    287.55684   -468.97671    239.46878 
   16020    307.71079      274.251   -468.94051    394.19161 
   16030    309.89597    276.19856   -468.98663    552.62862 
   16040     301.7092      268.902   -468.94465    641.69201 
   16050    308.98785    275.38919   -468.99473    738.13967 
   16060    314.20633    280.04022     -468.992    850.89636 
   16070    311.39133    277.53132   -468.97231     816.3021 
   16080    309.42523    275.77901   -468.96427    873.82971 
   16090     314.2057    280.03966   -468.98359    669.94052 
   16100    307.85219    274.37702   -468.97419    635.67924 
   16110    301.60801    268.81182   -468.98163    548.95963 
   16120    302.44862    269.56103   -468.96074    536.15037 
   16130    304.64655    271.51995   -468.98018    485.38102 
   16140    290.15363    258.60296   -468.91497    408.17822 
   16150    303.86726     270.8254    -468.9363     221.8736 
   16160    328.64746    292.91106   -468.97577    268.45025 
   16170    314.84853     280.6126   -468.93094    215.73767 
   16180    305.83928    272.58299   -468.94679   -31.204936 
   16190    292.40178    260.60665   -468.90604   -233.69529 
   16200     301.8928    269.06564   -468.91455   -172.16967 
   16210    313.86857    279.73919   -468.95629    118.78534 
   16220    326.36581    290.87751   -468.99454    328.62017 
   16230    325.15439    289.79782   -468.95566    343.89472 
   16240     306.7665    273.40939   -468.93628    386.03474 
   16250    318.53499    283.89819   -468.94618    537.44334 
   16260    333.79156     297.4958    -469.0051    651.30003 
   16270    319.36362    284.63672   -468.93605    780.69649 
   16280    329.09112    293.30648   -469.01018    775.20396 
   16290    321.87415    286.87427   -468.96726     627.9633 
   16300    327.28618     291.6978   -468.97953    491.30614 
   16310    319.76162    284.99144   -468.94547     623.6227 
   16320    312.86188    278.84196   -468.94196    551.71029 
   16330    310.00815    276.29854   -468.94231    306.86573 
   16340    316.72196    282.28231   -468.91908    116.06096 
   16350    333.45541     297.1962   -468.96852    47.771348 
   16360    316.42221    282.01515   -468.92728    76.256768 
   16370    302.40818    269.52498   -468.92013    134.10429 
   16380    303.65669    270.63773   -468.94048    192.96541 
   16390    311.51593    277.64238    -468.9412    278.92184 
   16400     315.4031    281.10686   -468.94298      378.406 
   16410    307.96194    274.47484   -468.95183    454.79515 
   16420    307.21072    273.80531    -468.9402    378.43154 
   16430    318.44197    283.81529   -468.93081    370.68986 
   16440    328.03277    292.36321   -468.96443    420.08146 
   16450    313.93812    279.80118   -468.93769    375.15579 
   16460     315.7813    281.44394   -468.97644      348.609 
   16470     311.4852    277.61499   -468.95192    262.27209 
   16480    304.75621    271.61769   -468.94257    203.17539 
   16490    300.01467    267.39174   -468.94197    286.64244 
   16500    307.50678    274.06917   -468.94825     504.1769 
   16510      309.168    275.54975   -468.96111    633.50841 
   16520    311.37699    277.51854   -468.97684    601.31531 
   16530    309.57573    275.91315   -468.94317    417.64277 
   16540    312.58366    278.59401   -468.98033    296.95868 
   16550    302.30697    269.43478   -468.93906    265.87566 
   16560    313.26605    279.20219   -468.97212    305.04092 
   16570    321.01282     286.1066   -468.97207    321.20608 
   16580    317.75955    283.20708   -468.96686    406.42552 
   16590    300.48452     267.8105   -468.94536    282.38238 
   16600    302.32418    269.45011   -468.98589    280.32054 
   16610    317.61654    283.07962   -468.97233    307.19872 
   16620    336.23317    299.67191   -469.00264    290.97961 
   16630    313.79052    279.66963   -468.92512    343.01382 
   16640    314.75515    280.52937   -468.97269    237.51497 
   16650     312.2754    278.31926   -468.95833    239.65029 
   16660    325.02865    289.68575   -468.97212    414.95864 
   16670    331.25821    295.23792   -468.97095    350.40578 
   16680     311.6395    277.75251   -468.95075    414.51595 
   16690    311.13083    277.29915    -468.9948    415.52028 
   16700    312.87314      278.852   -468.97156     187.9353 
   16710     324.1745    288.92448   -468.98356    153.72889 
   16720    330.47869    294.54317   -468.97571    274.99076 
   16730    323.56081    288.37752   -468.95918    127.96192 
   16740      316.719    282.27967   -468.93628   -25.481003 
   16750    317.49582    282.97203   -468.97848    75.940346 
   16760    321.75592    286.76889   -468.98585    275.81609 
   16770       310.47    276.71017   -468.96174    298.87646 
   16780    303.53653    270.53064   -468.94555    422.49152 
   16790    325.41124    290.02674   -468.98395    494.30263 
   16800    313.59736    279.49748   -468.98975    626.22222 
   16810    304.80223    271.65871   -468.95868    491.95429 
   16820    328.68484    292.94438   -468.99211    565.06105 
   16830    318.72614    284.06856   -468.95993    646.78819 
   16840    312.45966    278.48348   -468.96407    617.75133 
   16850    307.71817    274.25758   -468.96185    456.29175 
   16860    309.81076    276.12262    -468.9862     250.8179 
   16870    309.23426    275.60881   -468.93148    199.75568 
   16880    315.60497    281.28678   -468.98559    230.30906 
   16890    307.05911    273.67018   -468.95688    267.94251 
   16900    309.52695    275.86967   -468.94347     70.89208 
   16910    308.73634    275.16503   -468.94511    122.98765 
   16920    313.95073    279.81242    -468.9498    126.36637 
   16930    311.55065    277.67332   -468.96983     313.9655 
   16940    303.54816      270.541   -468.97103    204.13538 
   16950    306.91415    273.54099   -468.98167    320.24124 
   16960    315.06056    280.80157   -468.99145    618.07387 
   16970    318.21223    283.61053     -468.969    679.62841 
   16980     323.2577    288.10737   -469.00831    496.88777 
   16990    297.99073    265.58787   -468.92908    461.14299 
   17000    306.57882    273.24212   -469.01582    542.35453 
   17010    305.15107    271.96961   -468.95968    461.07081 
   17020    312.38668    278.41844   -468.99173    408.05644 
   17030    296.21389    264.00425   -468.94657    377.03485 
   17040    302.90891    269.97126     -468.967    507.91401 
   17050    312.30755    278.34792   -468.95096    369.69484 
   17060    306.40617    273.08824   -468.98599    235.52075 
   17070     287.4494    256.19279    -468.9143      19.0649 
   17080    304.33883    271.24569   -468.97833   0.93263643 
   17090    301.74515    268.93404   -468.93249    286.73057 
   17100    312.71628     278.7122   -468.97385    574.85269 
   17110    316.20763    281.82391   -468.96862    410.66605 
   17120    306.96519    273.58647   -468.95091    251.55608 
   17130    296.23641    264.02432   -468.92826    432.22784 
   17140    305.50841     272.2881   -468.98231    431.30816 
   17150    297.89725    265.50456   -468.95356    300.44309 
   17160    304.16869    271.09406   -468.98058    124.25816 
   17170    312.82868    278.81238    -468.9467    136.18151 
   17180    327.08168    291.51553   -468.97531    383.50595 
   17190    319.38224    284.65332   -468.96215    605.22387 
   17200      315.876    281.52834   -468.95289    369.23905 
   17210    306.24442    272.94408   -468.96989    564.39958 
   17220    302.33561     269.4603    -468.9971    589.55764 
   17230    307.25281    273.84282   -468.96594     546.2849 
   17240    314.79736    280.56699   -469.00193    505.19747 
   17250    299.98135    267.36204   -468.93608    327.61632 
   17260    314.02315    279.87696   -468.98739    215.00782 
   17270    307.25547    273.84519   -468.93954    416.69705 
   17280    303.05118    270.09806   -468.95466    457.55443 
   17290    306.58915    273.25132   -468.97455    233.36121 
   17300    314.52965    280.32839   -468.95248    140.82434 
   17310    320.31272    285.48262   -468.97712    294.38515 
   17320    305.90853    272.64471   -468.94598    322.69216 
   17330    292.61135    260.79344   -468.93859     193.4581 
   17340    296.22254    264.01195    -468.9384     37.29516 
   17350    314.33294    280.15307    -468.9755   -3.7516019 
   17360    306.94632    273.56965   -468.95757    353.63332 
   17370    303.89748    270.85233   -468.94402    448.42954 
   17380    309.58699    275.92319   -468.94054    366.13383 
   17390     310.5329    276.76623   -468.94401    148.89763 
   17400    302.26868    269.40065   -468.95951    194.03281 
   17410    294.52283    262.49706   -468.92998    249.84777 
   17420    301.17043    268.42182   -468.95087    286.26279 
   17430    297.17908    264.86448   -468.91831    301.78239 
   17440    301.51432    268.72831   -468.96249    290.55624 
   17450    286.29479    255.16372   -468.92328    319.80916 
   17460     290.2816    258.71702   -468.94218    347.30509 
   17470     300.8725    268.15629   -468.94997    390.60477 
   17480    295.20182    263.10223   -468.97171    440.64707 
   17490    284.20468    253.30089   -468.91932    406.33153 
   17500    308.70676    275.13867    -468.9856    346.69008 
   17510    305.77948    272.52969   -468.92229    154.12893 
   17520     308.8091    275.22988   -468.95804    308.15502 
   17530    301.65122    268.85033   -468.92685    353.92607 
   17540     300.3904    267.72661   -468.93639    380.96587 
   17550    291.96044    260.21331   -468.94447    302.18776 
   17560    293.11134    261.23906   -468.94372    284.28707 
   17570    297.11117    264.80396   -468.95686     263.0461 
   17580    283.91806    253.04544   -468.91562    213.95865 
   17590     287.1757    255.94885   -468.93721    66.748762 
   17600    295.54956    263.41216   -468.96559    50.470916 
   17610    292.70703    260.87871   -468.93724    336.81405 
   17620    304.77208    271.63183   -468.97057     493.4491 
   17630    302.77008    269.84753   -468.97185    495.40467 
   17640    290.39744    258.82026   -468.95312    502.47557 
   17650    297.38998    265.05245   -468.97429    470.06434 
   17660    301.16973     268.4212   -468.95891    355.19923 
   17670    302.48178    269.59058   -468.98351    507.03564 
   17680    299.12055    266.59484   -468.97873     515.1813 
   17690     299.0604    266.54123   -468.99825    446.56245 
   17700    295.88903    263.71471   -468.99043    214.35654 
   17710    304.04102    270.98027   -468.97857    314.13244 
   17720     304.2012    271.12303   -468.95903    397.90562 
   17730    301.98165    269.14484   -468.97006     442.4667 
   17740     302.4262    269.54104   -468.95976    468.25018 
   17750    306.62119    273.27988   -468.96484    406.42152 
   17760    310.67912    276.89655   -468.97025    292.00387 
   17770     303.4255    270.43168   -468.94231    276.57975 
   17780    307.89755    274.41745   -468.95692    159.87613 
   17790    303.06666    270.11186   -468.95908    279.72655 
   17800    295.09021    263.00275   -468.95958    348.16222 
   17810    301.17047    268.42186   -468.96866     329.3876 
   17820    300.34182    267.68331   -468.99147    314.39522 
   17830    283.95365    253.07715   -468.95474    421.93559 
   17840      291.058      259.409    -468.9739    225.94305 
   17850    303.10917    270.14975   -468.96579    83.829781 
   17860     308.2071    274.69334   -469.00202    258.38259 
   17870    299.38075    266.82675   -468.96589    358.94128 
   17880    316.33285    281.93551   -469.02008     177.8666 
   17890    296.75612    264.48751   -468.93771    195.00872 
   17900     303.1337    270.17161   -468.99069    189.73589 
   17910     300.9474    268.22305   -468.99158    356.84988 
   17920     296.2371    264.02493   -468.99874    602.94188 
   17930    298.28705    265.85197   -469.00001    600.89214 
   17940    299.42009    266.86181   -468.96897    399.23509 
   17950     310.0057    276.29636   -468.97153     214.8152 
   17960    311.71611    277.82079   -468.99921    278.87854 
   17970    303.88612    270.84221   -468.96334    362.56493 
   17980    309.81893     276.1299   -468.99078    280.53798 
   17990    307.00504    273.62199   -468.98545    211.11111 
   18000     306.8411    273.47587   -468.98657    358.41426 
   18010    305.16935     271.9859    -468.9992    263.55433 
   18020    287.71638    256.43074   -468.95199    518.29814 
   18030    300.41251    267.74632   -468.97893    503.90449 
   18040    315.69035    281.36288   -469.00356    419.73795 
   18050    303.28044    270.30239   -468.96735    423.57718 
   18060    303.86581    270.82412   -468.98992    461.86575 
   18070    298.68435    266.20607   -468.97794    570.05031 
   18080    308.08925     274.5883   -468.97531    457.80775 
   18090     306.1547    272.86412   -468.96949    336.50962 
   18100    296.90058    264.61627   -468.95952    343.34386 
   18110    312.61829    278.62486   -468.98935    253.75933 
   18120    310.39523    276.64354   -468.98544    439.22035 
   18130    302.05178    269.20733   -468.97694    599.91893 
   18140    305.37253    272.16699   -469.01052    529.44603 
   18150    298.15702    265.73608   -468.96905    498.86057 
   18160    310.13061    276.40769   -469.01078    365.41061 
   18170     294.9146    262.84624   -468.95365    416.04078 
   18180    294.29372    262.29287   -468.96911    357.85035 
   18190    289.48845    258.01011   -468.95621    416.45152 
   18200    294.00633    262.03673   -468.97715     446.6277 
   18210    304.52751    271.41386   -469.00533     405.6377 
   18220    294.17641    262.18831   -468.94197    355.06314 
   18230      304.855    271.70574   -468.99557    288.28361 
   18240    300.65058     267.9585   -468.95533    257.30389 
   18250     303.9457    270.89532   -469.00133     257.0807 
   18260    303.03519    270.08381    -468.9778     158.0135 
   18270    310.14555      276.421   -468.97797    93.767078 
   18280    306.26551    272.96287   -468.95078     185.3953 
   18290    312.43792    278.46411   -469.00061    274.28008 
   18300    304.29025     271.2024   -468.96583    321.95111 
   18310    309.02068    275.41845   -468.97257    262.26538 
   18320    318.99026    284.30396   -468.99497    339.79195 
   18330    306.67593    273.32867   -468.98421    698.64877 
   18340    306.15934    272.86825    -469.0061    710.41589 
   18350    305.43734    272.22475   -468.98694    758.27669 
   18360    314.14715    279.98748   -469.01189    809.77116 
   18370    314.00002    279.85635   -468.98077    781.08416 
   18380    308.09704    274.59525   -468.98173    486.42439 
   18390    307.05904    273.67011   -469.01353    364.48157 
   18400    297.77691    265.39731   -468.94531    277.26319 
   18410    313.40017    279.32173   -468.97694     312.7346 
   18420    319.24641    284.53226    -468.9825    259.97565 
   18430    303.56579    270.55671    -468.9506    290.74325 
   18440    317.33793     282.8313   -469.00117      174.414 
   18450    318.59189    283.94891   -468.97989    278.71878 
   18460    310.32801    276.58363   -468.99724    219.19732 
   18470    304.02567    270.96659   -468.96675    375.68492 
   18480    306.77496    273.41693   -468.98765    434.88147 
   18490    299.75588    267.16108   -468.97117    412.95039 
   18500    307.38749    273.96286   -468.99606    409.64428 
   18510    301.91298    269.08363     -468.969    559.33281 
   18520     306.2313    272.93238   -468.98767    542.33822 
   18530    303.12203    270.16121   -468.95976    314.87573 
   18540    312.17639    278.23102   -469.00601      123.109 
   18550    301.96236    269.12764   -468.96448    75.308347 
   18560    299.27427    266.73185   -468.98209     365.0879 
   18570    303.37036    270.38253   -468.97311     559.1699 
   18580    316.27875     281.8873   -468.99499    714.88867 
   18590    308.57866     275.0245    -468.9709    575.17007 
   18600    304.45104    271.34571   -468.97345    351.51497 
   18610    304.50597    271.39466   -468.95068    119.42685 
   18620    307.36733    273.94488   -468.96211    227.67797 
   18630    314.78477    280.55577   -468.97603    236.98698 
   18640     323.5321    288.35193   -468.98569    207.78503 
   18650    315.08188    280.82057    -468.9755    251.28655 
   18660    304.08818     271.0223   -468.96902    28.831692 
   18670    303.16527    270.19975   -468.97471    6.1946598 
   18680    311.15668    277.32219   -468.99556    219.51962 
   18690    305.36475    272.16006   -468.94871    427.16843 
   18700    328.44068    292.72677   -469.02676    388.44604 
   18710    321.95639    286.94757   -469.00041    412.26996 
   18720     302.8218    269.89362   -468.97157    677.64079 
   18730    302.90779    269.97027   -468.99534    667.40139 
   18740    302.15821    269.30219   -468.99979    526.73439 
   18750    308.64368    275.08245   -468.99775    473.45054 
   18760    310.29805    276.55693   -468.97393    274.46391 
   18770    311.18885    277.35086    -468.9965    232.63055 
   18780    310.33561     276.5904   -468.97963    338.97356 
   18790    323.15497    288.01581   -469.01095    387.36507 
   18800     324.7205     289.4111   -469.01713    504.67775 
   18810    318.71683    284.06026   -468.99393    545.89549 
   18820    322.96939    287.85041   -469.01685    611.12497 
   18830    321.05542    286.14456   -468.99099    525.15965 
   18840     317.7377    283.18761   -469.04257    532.72558 
   18850    307.86611    274.38943   -468.97512     595.5229 
   18860    329.30082    293.49337   -469.03657    623.17128 
   18870    314.82152    280.58852   -468.96624    710.90632 
   18880    325.19397     289.8331   -469.01032    453.89655 
   18890    321.56467    286.59844   -469.00517    422.39317 
   18900    312.54428    278.55891   -468.98573    310.19182 
   18910    308.20426     274.6908   -468.96242     351.3833 
   18920    330.45164    294.51906   -468.99523     332.6841 
   18930    325.26984    289.90072   -468.97984    405.52321 
   18940    315.68459    281.35774   -468.98343     317.6465 
   18950    315.77645    281.43961   -468.96772    185.23774 
   18960    326.20458    290.73381   -468.99913    286.10401 
   18970    322.54072    287.46835   -468.97542     294.0775 
   18980    318.85399    284.18251   -468.97233    280.83125 
   18990    316.70375    282.26608   -468.97305    286.85073 
   19000    319.99127    285.19612   -468.98473    415.95608 
   19010    309.55288    275.89278    -468.9559    565.30948 
   19020    308.04305    274.54713   -468.97488     592.0844 
   19030    303.79553    270.76148   -468.96938    421.38439 
   19040     307.6044    274.15617   -468.99949    341.47141 
   19050    305.99918     272.7255   -468.98078    351.60905 
   19060    308.23959     274.7223    -468.9792    356.38054 
   19070    315.25302     280.9731   -468.98993    316.44899 
   19080    312.54109    278.55606   -468.99295    445.15596 
   19090    306.70049    273.35056   -468.97715    546.42561 
   19100    317.22161    282.72763   -468.99947    539.52699 
   19110    306.54011    273.20761   -468.94703    299.36637 
   19120    312.56427    278.57672   -468.96907    308.48919 
   19130    312.20626    278.25764   -468.98231    405.34874 
   19140    312.02495    278.09605   -468.97618    516.49095 
   19150    324.04415     288.8083   -468.98348    417.09258 
   19160    322.38096    287.32597   -468.99138     465.6778 
   19170    313.18413    279.12917    -468.9697    246.06523 
   19180    318.55517    283.91618   -468.98947    188.85739 
   19190    309.93116    276.22992   -468.97195    327.11838 
   19200    316.40405    281.99897   -468.98772     240.1891 
   19210    316.91872    282.45768   -468.96092    230.32247 
   19220    318.73743    284.07863   -468.97473    429.55837 
   19230    320.20153    285.38352   -468.98871    341.24242 
   19240    316.91725    282.45637   -468.99785    427.65655 
   19250    319.16952    284.46373   -468.98845    430.08383 
   19260    320.75697    285.87856   -468.97054    525.77196 
   19270    323.95436    288.72828     -468.983    502.30093 
   19280    317.41595    282.90084   -468.99204    342.09127 
   19290     310.9237    277.11454   -468.97159    173.94109 
   19300    321.37494    286.42933   -468.98268    321.07961 
   19310    326.28383    290.80445   -468.98238    447.34262 
   19320    334.19736    297.85747   -469.00318    535.73648 
   19330    327.25094    291.66639   -468.99855    558.29123 
   19340     323.9567    288.73037   -469.00869     554.0759 
   19350    317.16276    282.67518   -468.95504    522.14084 
   19360    323.69249    288.49489   -468.98559    531.99418 
   19370    325.04684    289.70196   -468.98341    546.28851 
   19380    327.98099    292.31706   -468.99166    414.03059 
   19390    322.41057    287.35235   -468.99609    271.59542 
   19400    301.89947    269.07159   -468.96558    284.97133 
   19410    297.61458    265.25262   -468.95665    429.89495 
   19420    313.59336    279.49391   -468.98452    319.73369 
   19430    314.26539    280.09287   -468.96985    240.41338 
   19440    315.79441    281.45562   -468.98514    97.482323 
   19450      312.398    278.42853   -468.96713    205.41474 
   19460    315.97146    281.61342   -468.98565    230.75634 
   19470    305.95607    272.68708   -468.95822    283.87998 
   19480    298.55229    266.08837   -468.95935    304.05397 
   19490    292.57952    260.76507    -468.9466    194.95141 
   19500    303.95173    270.90069   -468.99394    104.12008 
   19510    298.29965     265.8632   -468.93729    186.56071 
   19520    314.28072    280.10652   -468.98041    234.19625 
   19530    314.01841    279.87274    -468.9611    296.66006 
   19540    304.88459    271.73211   -468.96733    260.29389 
   19550    302.78788    269.86339   -468.97374    241.84802 
   19560     308.2283    274.71224   -468.97291    437.48469 
   19570    313.14005    279.08989   -468.99657    723.21753 
   19580    312.48124    278.50272   -469.02445    563.60081 
   19590    290.73121    259.11774   -468.94964    496.87387 
   19600    299.48709    266.92152   -468.98771     592.1792 
   19610    302.06792    269.22172   -469.00168    503.84936 
   19620    303.31703    270.33501   -469.00067    485.39255 
   19630     301.8256    269.00575   -468.96264    423.30103 
   19640    297.77928    265.39942   -468.96861    241.04762 
   19650    292.37417    260.58205   -468.94049     122.1363 
   19660    300.70098    268.00341   -468.98275    2.8639108 
   19670    300.59487    267.90885   -468.95872   -3.5814098 
   19680    307.77399    274.30733   -468.97346    19.776113 
   19690    298.55712    266.09268   -468.97155    153.20319 
   19700    289.85907    258.34044   -468.97559    370.20822 
   19710    289.01566    257.58874   -468.97809    461.36334 
   19720    295.20392     263.1041    -468.9528    521.56203 
   19730    315.30747    281.02163    -468.9899    420.86764 
   19740    309.07903    275.47046   -468.96502    458.73409 
   19750    305.07224    271.89936   -468.95663     519.5634 
   19760    312.92302    278.89646   -468.98223     457.9225 
   19770     309.0654    275.45831    -468.9861    458.89229 
   19780    298.07812    265.66576   -468.97095    671.78488 
   19790     299.4434    266.88259   -468.98774    539.05959 
   19800    310.45243    276.69451   -468.99915    447.51227 
   19810    310.47565    276.71521   -468.98467    314.92375 
   19820    303.30289     270.3224   -468.96912    388.16488 
   19830    313.70671    279.59493   -468.99771    340.52817 
   19840    308.55482    275.00325   -468.96885    356.08927 
   19850    306.61599    273.27524   -468.94688    493.30085 
   19860    317.44459    282.92636   -469.00044    333.94927 
   19870    301.15129    268.40476   -468.92975    463.17436 
   19880    299.89982    267.28937   -468.94476    514.09705 
   19890    315.64838    281.32547   -468.96504    387.19756 
   19900    313.97724    279.83605   -468.94689    432.67004 
   19910     314.7886    280.55918   -468.98084    326.64005 
   19920    298.22116    265.79325   -468.92278    293.09861 
   19930    306.68904    273.34035   -468.97827    379.94889 
   19940    305.68115    272.44206    -468.9494    317.78884 
   19950    309.29231    275.66054   -468.94772    359.42482 
   19960    311.06065     277.2366   -468.96904    426.94477 
   19970    300.85237    268.13835   -468.94609    458.25813 
   19980    308.05375    274.55666   -468.97315    370.98353 
   19990    313.20836    279.15077     -468.968    503.31097 
   20000    316.63263     282.2027   -468.97065    559.14484 
Loop time of 12.5147 on 1 procs for 10000 steps with 300 atoms

Performance: 588.007 ns/day, 0.041 hours/ns, 799.060 timesteps/s
97.9% CPU use with 1 MPI tasks x no OpenMP threads

MPI task timing breakdown:
Section |  min time  |  avg time  |  max time  |%varavg| %total
---------------------------------------------------------------
Pair    | 10.968     | 10.968     | 10.968     |   0.0 | 87.64
Neigh   | 1.0564     | 1.0564     | 1.0564     |   0.0 |  8.44
Comm    | 0.099498   | 0.099498   | 0.099498   |   0.0 |  0.80
Output  | 0.31787    | 0.31787    | 0.31787    |   0.0 |  2.54
Modify  | 0.043914   | 0.043914   | 0.043914   |   0.0 |  0.35
Other   |            | 0.02905    |            |       |  0.23

Nlocal:    300 ave 300 max 300 min
Histogram: 1 0 0 0 0 0 0 0 0 0
Nghost:    1277 ave 1277 max 1277 min
Histogram: 1 0 0 0 0 0 0 0 0 0
Neighs:    13395 ave 13395 max 13395 min
Histogram: 1 0 0 0 0 0 0 0 0 0
FullNghs:  26790 ave 26790 max 26790 min
Histogram: 1 0 0 0 0 0 0 0 0 0

Total # of neighbors = 26790
Ave neighs/atom = 89.3
Neighbor list builds = 840
Dangerous builds = 0
unfix nve
undump 1

write_restart restart.equil





Total wall time: 0:00:25
