LAMMPS (19 May 2017)
variable Text equal 300.0
variable Nrun0 equal 10000
variable sigma equal 3.13
variable tau equal 1703.41 # fs
variable dt equal 0.005*${tau}
variable dt equal 0.005*1703.41
variable Tdamp equal 50.0*${dt}
variable Tdamp equal 50.0*8.51705

units real
atom_style atomic
boundary p p p
# processors 2 2 4
# processors 4 4 32
processors * * *

region simulation_space block 0.0 201.5 0.0 201.5 0.0 161.2 units box
create_box 8 simulation_space
Created orthogonal box = (0 0 0) to (201.5 201.5 161.2)
  1 by 1 by 1 MPI processor grid

read_data samples/MoS2unitcell_new.xyz add merge
  orthogonal box = (-0.5 -0.5 -0.5) to (201.5 201.5 161.2)
  1 by 1 by 1 MPI processor grid
  reading atoms ...
  60 atoms

# mass 1 18.0

neighbor 2.0 bin
neigh_modify delay 0 every 1 check yes

variable cutoff equal 2.5*${sigma}
variable cutoff equal 2.5*3.13
pair_style hybrid/overlay lj/cut ${cutoff} sw
pair_style hybrid/overlay lj/cut 7.825 sw
# pair_modify tail yes
pair_coeff * * lj/cut 0.0 0.0
# for SW potentials
# set coefficients for interactions within a layer
pair_coeff * * sw mos2_long.sw S1 S2 S3 S4 Mo1 Mo2 Mo3 Mo4

# for LJ potentials
variable epsilon_lj equal 0.00693
pair_coeff 1 2 lj/cut ${epsilon_lj} ${sigma}
pair_coeff 1 2 lj/cut 0.00693 ${sigma}
pair_coeff 1 2 lj/cut 0.00693 3.13
pair_coeff 2 3 lj/cut ${epsilon_lj} ${sigma}
pair_coeff 2 3 lj/cut 0.00693 ${sigma}
pair_coeff 2 3 lj/cut 0.00693 3.13
pair_coeff 3 4 lj/cut ${epsilon_lj} ${sigma}
pair_coeff 3 4 lj/cut 0.00693 ${sigma}
pair_coeff 3 4 lj/cut 0.00693 3.13
pair_coeff 1 4 lj/cut ${epsilon_lj} ${sigma}
pair_coeff 1 4 lj/cut 0.00693 ${sigma}
pair_coeff 1 4 lj/cut 0.00693 3.13

thermo_style custom step temp ke etotal press
thermo_modify flush yes
thermo 10

min_style cg
minimize 1.0e-8 1.0e-8 1000 1000
Neighbor list info ...
  update every 1 steps, delay 0 steps, check yes
  max neighbors/atom: 2000, page size: 100000
  master list distance cutoff = 9.825
  ghost atom cutoff = 9.825
  binsize = 4.9125, bins = 42 42 33
  2 neighbor lists, perpetual/occasional/extra = 2 0 0
  (1) pair lj/cut, perpetual, half/full from (2)
      attributes: half, newton on
      pair build: halffull/newton
      stencil: none
      bin: none
  (2) pair sw, perpetual
      attributes: full, newton on
      pair build: full/bin/atomonly
      stencil: full/bin/3d
      bin: standard
Per MPI rank memory allocation (min/avg/max) = 5.142 | 5.142 | 5.142 Mbytes
Step Temp KinEng TotEng Press 
       0            0            0   -108.73601   0.90038719 
      10            0            0   -123.07706  0.074245296 
      20            0            0   -125.62947 -0.063791383 
      30            0            0   -125.98506  0.010772865 
      40            0            0   -126.03954 0.0050304697 
      50            0            0   -126.04858 0.0014266194 
      60            0            0   -126.05082 -0.0011996935 
      70            0            0   -126.05657 0.00042049424 
      80            0            0   -126.05827 0.0003931633 
      90            0            0   -126.06088 -0.0022402284 
     100            0            0   -126.06218 -0.0004942036 
     110            0            0    -126.0636 -0.00075500175 
     120            0            0   -126.06546 -0.00060140227 
     130            0            0   -126.06632 -0.0018007294 
     140            0            0   -126.06718 -0.00018863239 
     150            0            0   -126.06726 -0.0001585445 
     160            0            0   -126.06737 -4.1500921e-05 
     165            0            0   -126.06738 -5.7743579e-06 
Loop time of 0.049377 on 1 procs for 165 steps with 60 atoms

98.5% CPU use with 1 MPI tasks x no OpenMP threads

Minimization stats:
  Stopping criterion = energy tolerance
  Energy initial, next-to-last, final = 
        -108.736005732      -126.06737528     -126.067376073
  Force two-norm initial, final = 19.1139 0.00470703
  Force max component initial, final = 3.8936 0.0016953
  Final line search alpha, max atom move = 1 0.0016953
  Iterations, force evaluations = 165 320

MPI task timing breakdown:
Section |  min time  |  avg time  |  max time  |%varavg| %total
---------------------------------------------------------------
Pair    | 0.04781    | 0.04781    | 0.04781    |   0.0 | 96.83
Neigh   | 0.00017309 | 0.00017309 | 0.00017309 |   0.0 |  0.35
Comm    | 0.00050092 | 0.00050092 | 0.00050092 |   0.0 |  1.01
Output  | 0.00029516 | 0.00029516 | 0.00029516 |   0.0 |  0.60
Modify  | 0          | 0          | 0          |   0.0 |  0.00
Other   |            | 0.0005982  |            |       |  1.21

Nlocal:    60 ave 60 max 60 min
Histogram: 1 0 0 0 0 0 0 0 0 0
Nghost:    280 ave 280 max 280 min
Histogram: 1 0 0 0 0 0 0 0 0 0
Neighs:    1070 ave 1070 max 1070 min
Histogram: 1 0 0 0 0 0 0 0 0 0
FullNghs:  2140 ave 2140 max 2140 min
Histogram: 1 0 0 0 0 0 0 0 0 0

Total # of neighbors = 2140
Ave neighs/atom = 35.6667
Neighbor list builds = 2
Dangerous builds = 0
reset_timestep 0
dump 1 all atom 10 relax.lammpstrj

# velocity all create ${Text} 8782734 mom yes rot yes dist gaussian

fix nvt all nvt temp ${Text} ${Text} ${Tdamp}
fix nvt all nvt temp 300 ${Text} ${Tdamp}
fix nvt all nvt temp 300 300 ${Tdamp}
fix nvt all nvt temp 300 300 425.8525
timestep ${dt}
timestep 8.51705
run ${Nrun0}
run 10000
Per MPI rank memory allocation (min/avg/max) = 5.02 | 5.02 | 5.02 Mbytes
Step Temp KinEng TotEng Press 
       0            0            0   -126.06738 -5.7743579e-06 
      10 2.0059036e-06 3.5277384e-07   -126.06738 -9.413618e-05 
      20 2.7350773e-06  4.81012e-07   -126.06738 -0.00021092312 
      30  4.09189e-06 7.1963167e-07   -126.06738 -0.00019609032 
      40 6.687221e-06 1.1760668e-06   -126.06738 -0.00013934987 
      50 9.896795e-06 1.7405275e-06   -126.06738 -0.00014103543 
      60 1.4194832e-05 2.4964138e-06   -126.06738 -0.00013316828 
      70 2.0026655e-05 3.5220436e-06   -126.06737 -7.0626419e-05 
      80 2.7302918e-05 4.8017038e-06   -126.06737 -7.2572876e-05 
      90 3.6641303e-05 6.4440252e-06   -126.06737 -0.00017439747 
     100 4.8060464e-05 8.4522877e-06   -126.06737 -0.00018795148 
     110 6.2151106e-05 1.0930378e-05   -126.06737 -8.6841929e-05 
     120 8.0175102e-05 1.4100218e-05   -126.06737 -8.055607e-05 
     130 0.00010164396 1.7875899e-05   -126.06737 -0.00016135385 
     140 0.00012894184 2.2676716e-05   -126.06736 -0.00014176236 
     150 0.00016100393 2.8315405e-05   -126.06736 -5.7776772e-05 
     160 0.00019984149 3.5145683e-05   -126.06735 -8.9169535e-05 
     170 0.00024707005 4.3451665e-05   -126.06734 -0.00018591497 
     180 0.00030526633 5.3686517e-05   -126.06734 -0.00012223417 
     190 0.0003729705 6.5593498e-05   -126.06732 3.6339696e-05 
     200 0.00045477032 7.9979452e-05   -126.06731 2.773636e-05 
     210 0.00055436139 9.7494314e-05   -126.06729 -6.6584491e-05 
     220 0.00067334332 0.0001184194   -126.06727 -6.4278754e-05 
     230 0.00081036634 0.00014251734   -126.06725 -8.9463426e-05 
     240 0.00098603117 0.00017341113   -126.06722 -0.00019067041 
     250 0.0011888099 0.00020907338   -126.06718 -0.00013550342 
     260 0.0014323632 0.00025190655   -126.06713 0.00014971969 
     270 0.0017331846 0.00030481136   -126.06707 0.00032591752 
     280 0.0020785983 0.00036555849   -126.06701 0.00013238733 
     290 0.0025084238 0.00044115096   -126.06692 -0.00011005575 
     300 0.0030182751 0.00053081738   -126.06682 -8.2356512e-05 
     310 0.0036303045 0.00063845365    -126.0667 2.172409e-05 
     320 0.0043604191 0.00076685729   -126.06655 8.4702868e-05 
     330 0.0052495643 0.00092322929   -126.06637 0.00020078506 
     340 0.0063185763 0.0011112341   -126.06616 0.00025971867 
     350 0.0076112843 0.0013385798   -126.06589 0.00016172243 
     360 0.0091592788 0.0016108222   -126.06558 9.7692748e-05 
     370  0.011039388 0.0019414728   -126.06542 0.00031236974 
     380  0.013314091 0.0023415198   -126.06495 0.00064366005 
     390  0.016065956 0.0028254843   -126.06461 0.00066146664 
     400  0.019400366 0.0034118995   -126.06392 0.00051777822 
     410   0.02344326 0.0041229145   -126.06309 0.00053794877 
     420  0.028359072 0.0049874474   -126.06208 0.00054535039 
     430  0.034295228 0.0060314261    -126.0613 0.00048180128 
     440  0.041540871 0.0073057013    -126.0598 0.00059550134 
     450  0.050333036   0.00885196   -126.05798 0.00088454729 
     460  0.061032471  0.010733646   -126.05576 0.0012618481 
     470  0.074079445  0.013028189   -126.05306 0.0016100909 
     480  0.089885816   0.01580802   -126.04977 0.0017947946 
     490   0.10915784  0.019197348   -126.04576 0.0016647217 
     500   0.13276913  0.023349814   -126.04087 0.0012686837 
     510   0.16123692  0.028356381    -126.0349 0.0013722527 
     520   0.19619825  0.034504953   -126.02761 0.0022836696 
     530   0.23863552  0.041968302   -126.01895 0.0030620662 
     540   0.29031216  0.051056559   -126.00831 0.0033620091 
     550   0.35325584  0.062126324   -125.99506 0.0036512265 
     560   0.42982139  0.075591739   -125.97888  0.003944559 
     570   0.52308737  0.091994222   -125.95912 0.0043048159 
     580   0.63662855   0.11196246     -125.935  0.005265134 
     590   0.77442075   0.13619567   -125.90555 0.0070025493 
     600   0.94180852   0.16563379   -125.86963 0.0083584281 
     610     1.145234   0.20140978   -125.82583  0.008366913 
     620    1.3917042   0.24475594   -125.77242 0.0089515852 
     630    1.6906991   0.29733952   -125.70736  0.011759238 
     640    2.0521998   0.36091585   -125.62768  0.014873195 
     650    2.4892561   0.43777997    -125.5311   0.01713957 
     660    3.0161416   0.53044217   -125.41378   0.02005475 
     670    3.6497214   0.64186844   -125.27166  0.023944436 
     680    4.4076682   0.77516688   -125.09953  0.027649196 
     690    5.3089984   0.93368182   -124.89152  0.031836208 
     700    6.3718711    1.1206069     -124.641  0.039194079 
     710    7.6075612     1.337925   -124.34066   0.04899938 
     720    9.0212036    1.5865392   -123.98287  0.057582174 
     730    10.605477    1.8651619   -123.56001  0.067325743 
     740    12.336849    2.1696544   -123.06519  0.082895827 
     750     14.19269    2.4960371   -122.49259   0.10037238 
     760    16.153575    2.8408935    -121.8374   0.11416573 
     770    18.221872    3.2046405   -121.09496   0.12673715 
     780     20.40872    3.5892365   -120.26058   0.14174988 
     790     22.72891    3.9972833   -119.33027   0.15513138 
     800    25.267459    4.4437322   -118.29572   0.16229699 
     810    28.226433    4.9641205   -117.14476   0.16771254 
     820    32.019515    5.6312015   -115.85205   0.17356163 
     830     37.30509    6.5607638   -114.37033   0.17643436 
     840    44.453652    7.8179656   -112.62838   0.17889775 
     850    52.459687    9.2259693   -110.57092   0.17350013 
     860    63.981108    11.252216   -108.13808   0.16523838 
     870    77.507438    13.631062   -105.17977   0.14081627 
     880     86.37552    15.190672   -101.80009   0.12167423 
     890    96.643063    16.996402   -98.114534   0.14664606 
     900      117.372    20.641955   -93.876447   0.16668747 
     910    145.90264    25.659575   -88.776177   0.19329631 
     920    170.90885    30.057362   -82.794272   0.29316114 
     930    183.84527    32.332461    -76.41784   0.50205454 
     940    216.96938    38.157927   -69.512412   0.47611837 
     950    257.34949    45.259488    -61.78249   0.14184971 
     960    289.64672    50.939529   -53.652264   0.14579563 
     970    354.25303    62.301698   -45.177749   0.37202789 
     980    393.98765    69.289738   -36.904125   0.40334759 
     990    404.93167     71.21444   -30.338066   0.41615211 
    1000    434.11961    76.347659   -25.776673   0.34377919 
    1010    447.67089    78.730891   -23.691419   0.14953851 
    1020    410.56965    72.205978   -24.526624  0.019181431 
    1030    399.81139    70.313947   -27.463428   0.13592881 
    1040    398.55253    70.092553   -32.264399   0.23362481 
    1050    351.80044    61.870367   -38.290908   0.25966982 
    1060    313.91438    55.207429   -44.155594   0.21371521 
    1070    292.41684    51.426704   -49.520361  0.023936824 
    1080    265.43108    46.680779   -54.157971 -0.0092276803 
    1090    228.09916    40.115295   -57.629816   0.11224018 
    1100    218.81573     38.48264   -60.024573    0.1457137 
    1110    217.98867    38.337187   -61.516443   0.19007277 
    1120    215.00394    37.812269    -62.15858   0.24129566 
    1130    214.25831    37.681136   -61.941197   0.22942144 
    1140    217.57739    38.264855   -60.850748  0.074864888 
    1150    233.71607     41.10313   -58.872992 -0.072207118 
    1160    246.21832    43.301873   -56.031029  0.091554837 
    1170    265.09748    46.622109   -52.479419   0.33136878 
    1180    276.35212    48.601437   -48.324675   0.35917664 
    1190    309.31807    54.399086   -43.810171   0.31566838 
    1200    339.36156    59.682768   -39.017158   0.22938724 
    1210     362.2815    63.713647   -34.664697  0.074811569 
    1220    346.15488    60.877495   -31.227768  0.079905639 
    1230     375.2928    66.001916   -28.728339    0.1866393 
    1240    383.46208    67.438629    -27.34648   0.37769102 
    1250    374.56022     65.87308   -27.414605   0.32601408 
    1260    359.86896    63.289359   -28.773063   0.20041016 
    1270    348.11018    61.221369   -31.058402   0.11408982 
    1280    340.71432    59.920675   -34.103709   0.13658942 
    1290    318.28907    55.976797   -37.552672   0.23503161 
    1300    299.48324    52.669456   -41.001795   0.19444151 
    1310    284.39414    50.015769   -44.203203   0.12990614 
    1320    269.03097    47.313883   -46.999259   0.18661584 
    1330    251.36986    44.207862   -49.202229   0.24605074 
    1340    250.77911    44.103969   -50.766884   0.19774363 
    1350    252.06891    44.330803   -51.753635   0.13108135 
    1360    251.79244    44.282181    -52.18405   0.14426817 
    1370     240.8269    42.353695   -52.029267   0.28563157 
    1380    243.61459     42.84396   -51.227044   0.25961055 
    1390    251.21492    44.180613   -49.742766     0.119111 
    1400    257.28641    45.248392   -47.652663   0.14024846 
    1410    271.37266     47.72571   -44.978486   0.28847496 
    1420    308.30228    54.220442   -41.771611     0.345327 
    1430    335.42873     58.99111      -38.321   0.36052588 
    1440    338.21885    59.481803   -35.313026   0.41852572 
    1450    349.87708    61.532109   -32.897119    0.4026548 
    1460    353.84122    62.229275   -31.235912   0.20759006 
    1470    356.99443    62.783822   -30.455186  0.084261293 
    1480     365.7643     64.32616    -30.64858   0.23350987 
    1490    344.68463    60.618926    -31.86732   0.27834429 
    1500    340.83406    59.941734   -33.811751   0.15998686 
    1510    317.75416    55.882723   -36.276716  0.048771418 
    1520    294.32004    51.761417   -38.799272   0.20070015 
    1530    290.04201    51.009049     -41.1113    0.3771742 
    1540    283.26762    49.817651   -43.276238   0.28975861 
    1550    264.64003    46.541658   -45.071689   0.23883677 
    1560    258.61492    45.482035   -46.367261   0.36528634 
    1570    271.09744    47.677308   -47.198768   0.34311257 
    1580    266.79645    46.920902   -47.657236   0.11844131 
    1590    259.77344    45.685781   -47.693723  0.019895729 
    1600    260.66493    45.842566   -47.248359  0.089496028 
    1610    266.04643    46.788999   -46.311804   0.07384173 
    1620    287.46065    50.555069   -44.905284  0.022694759 
    1630    284.17562    49.977339   -43.238849   0.11414624 
    1640    302.30895    53.166408   -41.376025   0.23112739 
    1650     314.1551    55.249764   -39.402694   0.22601343 
    1660    321.86608    56.605877   -37.602452    0.1959841 
    1670    340.92379    59.957515   -36.077786   0.36737197 
    1680    341.69518    60.093177    -35.12073   0.40843377 
    1690    351.50788    61.818916   -34.875551   0.36707914 
    1700    322.93349    56.793599   -35.347279   0.33994632 
    1710    304.25041    53.507848   -36.138589   0.18304505 
    1720    310.06389    54.530252   -37.030748  0.024858468 
    1730    304.16993    53.493693   -38.048181   0.15928389 
    1740    292.81379    51.496516   -39.101878   0.34408669 
    1750    271.95878    47.828791    -39.97511    0.2651288 
    1760    279.03072    49.072517   -40.517005   0.21298601 
    1770    276.23507    48.580852   -40.770509   0.28136499 
    1780    278.04962    48.899972   -40.731007   0.29621108 
    1790    278.40362     48.96223   -40.389716   0.26151845 
    1800    291.74971    51.309378   -39.781012   0.25314302 
    1810    299.91642    52.745638   -39.001863    0.3438172 
    1820    310.81188    54.661799   -38.228061   0.20799718 
    1830    301.45643    53.016477   -37.537802  0.089654006 
    1840    304.80313    53.605054   -36.914259   0.21827587 
    1850    329.03791    57.867171   -36.359221   0.31675978 
    1860    327.06797    57.520721   -36.173851   0.23148157 
    1870    318.63851    56.038252   -36.388914   0.25854744 
    1880    332.51321    58.478365   -36.952226   0.38221396 
    1890    309.01329    54.345485   -37.924287   0.33249203 
    1900    290.67313    51.120042   -38.971203  0.031627972 
    1910    304.10772    53.482753   -39.932176   0.15550034 
    1920    296.88395    52.212325   -40.944442   0.58662173 
    1930    291.72093    51.304316   -41.900324    0.4826035 
    1940    278.33707    48.950526   -42.695784 -0.0051089049 
    1950    282.77272    49.730614   -43.270545  0.038990824 
    1960    265.41096     46.67724   -43.534555   0.44420899 
    1970    277.75104    48.847462   -43.419105   0.31265612 
    1980    273.94502    48.178106   -42.970835  0.057975368 
    1990    285.41025     50.19447   -42.210675   0.28471486 
    2000    300.62775     52.87074   -41.188445   0.58756334 
    2010    303.31287    53.342966   -40.136977   0.45604838 
    2020    293.36101    51.592754    -39.12828   0.21731658 
    2030    302.81192    53.254864   -38.029775   0.27392195 
    2040    309.58644    54.446284   -36.944537   0.38964835 
    2050    329.74846    57.992133   -35.972564   0.22550607 
    2060    334.75858    58.873253   -35.405787   0.19610887 
    2070    331.24176    58.254757   -35.356757   0.32492058 
    2080    311.37281    54.760448    -35.76666   0.32595985 
    2090    301.51065    53.026013   -36.324416   0.21025439 
    2100    310.56776    54.618866   -36.965717   0.22231305 
    2110    295.02819    51.885957   -37.677542   0.24714497 
    2120    307.29307    54.042953   -38.403017   0.18459732 
    2130    295.26127    51.926949   -39.166144   0.28197396 
    2140    308.82659    54.312651    -39.94352   0.31662207 
    2150    285.59207    50.226447   -40.730681  0.067698991 
    2160    293.49849    51.616931   -41.376544  0.049460153 
    2170    278.34542    48.951994   -41.873868   0.45814997 
    2180    294.16705    51.734511     -42.1895   0.42709894 
    2190     284.6285    50.056986   -42.335265   0.31841551 
    2200    290.13531    51.025457   -42.316902   0.24794376 
    2210    293.75041    51.661237   -42.166605   0.40347904 
    2220     283.2492    49.814411   -41.877528   0.44482957 
    2230    296.78741    52.195347   -41.423948   0.06621566 
    2240    288.87452    50.803724   -40.868905  0.013644121 
    2250    300.58521    52.863258   -40.194926   0.33266554 
    2260    293.03653    51.535689   -39.461379   0.35747754 
    2270    297.34589    52.293566    -38.66592   0.11860313 
    2280    302.03306    53.117887   -37.813428   0.23217898 
    2290    312.45846     54.95138   -36.959682   0.59575134 
    2300    307.53365    54.085265     -36.2532   0.51881225 
    2310    311.31516    54.750309   -35.676344    0.1147707 
    2320    318.40979    55.998027   -35.249761    0.1753826 
    2330    332.21039    58.425108   -35.096105   0.51365539 
    2340    337.83162    59.413701   -35.446852   0.46412441 
    2350    311.27078    54.742505   -36.292755   0.10243002 
    2360    306.72802     53.94358   -37.318384   0.17636853 
    2370     301.2136    52.973771   -38.424709   0.37474211 
    2380    298.64816    52.522594   -39.558222   0.27679575 
    2390    290.65578     51.11699   -40.629182  0.037133182 
    2400    277.40848    48.787216    -41.53931   0.18999748 
    2410    279.50958    49.156733   -42.184777   0.40085665 
    2420    281.79069    49.557907   -42.562163   0.32235319 
    2430    275.57135    48.464125   -42.673764   0.20926611 
    2440    289.17132    50.855923   -42.521351   0.27728302 
    2450    279.38498     49.13482   -42.155041    0.3095133 
    2460    274.63133    48.298806   -41.546776   0.11683404 
    2470    280.29655    49.295136   -40.613608  0.069128445 
    2480    305.36119    53.703199    -39.38078   0.31694786 
    2490     294.6249     51.81503   -38.101746   0.43754451 
    2500    309.52894    54.436172   -36.816804   0.36392275 
    2510    319.51313    56.192069   -35.574459   0.15139111 
    2520    315.10712    55.417193   -34.584706   0.19305476 
    2530    346.32275    60.907018   -33.872166   0.41223333 
    2540    330.84716     58.18536   -33.748418   0.43137554 
    2550    327.76792    57.643821   -34.149658   0.29821618 
    2560    320.54662    56.373826   -34.964518   0.24350618 
    2570    326.97778     57.50486   -36.137943   0.10658434 
    2580    325.34661     57.21799   -37.684964   0.15532583 
    2590    312.75495    55.003523   -39.598664    0.4410181 
    2600    294.73454    51.834314   -41.589867   0.42472428 
    2610    279.54685    49.163287   -43.377874   0.25989537 
    2620    269.03232     47.31412   -44.818089   0.28788686 
    2630    269.65843    47.424233   -45.879571   0.35261743 
    2640    260.24799     45.76924   -46.525084   0.23902777 
    2650    261.59963     46.00695   -46.694756   0.10607323 
    2660    263.78092    46.390568   -46.387932   0.28581317 
    2670    265.29098    46.656139   -45.615821   0.39946983 
    2680    277.53434    48.809353   -44.389792   0.19762567 
    2690    279.63963    49.179604   -42.809995  0.006907913 
    2700    298.97519    52.580107    -40.93836   0.17589006 
    2710    316.04856    55.582762   -38.933399   0.28237062 
    2720    329.40293    57.931366   -37.081094   0.28263861 
    2730    328.30441    57.738172   -35.643946   0.34849867 
    2740    335.27214    58.963572   -34.628456   0.49104951 
    2750    326.17211    57.363169   -34.140156    0.4397128 
    2760    321.17036    56.483522   -34.068225   0.21295229 
    2770    329.89561    58.018013   -34.346541   0.25378098 
    2780    316.60282    55.680239   -35.024306   0.38848813 
    2790     318.6812    56.045759     -36.0266   0.31681255 
    2800    295.63899    51.993377    -37.18731   0.17442258 
    2810    306.26917    53.862884   -38.367121   0.11375906 
    2820    290.09338    51.018083   -39.556593   0.21663183 
    2830    299.51867    52.675688   -40.711278   0.23000359 
    2840    270.51571    47.575001   -41.724834    0.1870105 
    2850    284.43499    50.022954   -42.419142   0.33048604 
    2860     281.7921    49.558154    -42.89681   0.44891491 
    2870    278.54067    48.986333   -43.143818   0.30002456 
    2880    276.30384    48.592947   -43.107207  0.058272405 
    2890    274.53431    48.281743   -42.756394   0.13934098 
    2900    290.92774     51.16482   -42.085945   0.32482666 
    2910    291.35056     51.23918   -41.201712   0.35577787 
    2920    302.83459    53.258852    -40.19984   0.25205498 
    2930    299.39304    52.653593   -39.179552   0.38293917 
    2940    304.22444    53.503281   -38.144249   0.51755842 
    2950    315.05747    55.408462   -37.144717   0.33541979 
    2960    310.56258    54.617955   -36.277654   0.12916998 
    2970    323.40779    56.877015   -35.600598   0.19531907 
    2980    319.75784    56.235106   -35.203326   0.28003986 
    2990    313.07932     55.06057   -35.107005   0.33858331 
    3000    311.12424    54.716733   -35.206893   0.28564231 
    3010    312.26067    54.916595   -35.489525   0.21732974 
    3020    310.46849    54.601408   -35.953806   0.17517381 
    3030    302.34412    53.172593   -36.577667   0.23453782 
    3040    298.36676    52.473103   -37.248558   0.36136237 
    3050    304.35561    53.526349   -37.939578   0.47193586 
    3060    306.86058    53.966894   -38.729684   0.45360922 
    3070    300.32618    52.817703   -39.644607   0.34317595 
    3080    283.48567    49.855999   -40.519016   0.15240307 
    3090    289.91377    50.986495   -41.244338  0.060239185 
    3100    294.63035     51.81599   -41.851098   0.20289457 
    3110    295.69004    52.002355   -42.440347   0.37178184 
    3120    274.87422    48.341523     -42.9247   0.28040278 
    3130    275.95893    48.532288   -43.128984   0.20242666 
    3140    273.32643    48.069316   -43.027682   0.24407865 
    3150    270.71601    47.610227   -42.564114   0.18448687 
    3160    272.98934    48.010032    -41.66235  0.099116847 
    3170    287.25898    50.519603   -40.348448   0.25134739 
    3180    290.28884    51.052457    -38.69978   0.48699835 
    3190    308.07318     54.18015   -36.844211   0.46986318 
    3200    322.37932    56.696139    -34.95069   0.23518815 
    3210    330.88179     58.19145   -33.342074   0.15607658 
    3220    338.11532    59.463595   -32.165108   0.28320435 
    3230    342.12968    60.169591   -31.556473   0.32079436 
    3240    332.69117    58.509662   -31.588297   0.30129391 
    3250     331.9138    58.372947   -32.167792   0.29644104 
    3260    325.24553    57.200214   -33.329008   0.34501338 
    3270    317.16209    55.778596   -35.024384   0.30408422 
    3280    308.59485    54.271896    -37.17711   0.21892348 
    3290    290.74977     51.13352   -39.551708   0.22395858 
    3300    278.51007    48.980951   -41.830509   0.31415827 
    3310    270.74998    47.616202   -43.756978   0.32377094 
    3320    270.99139    47.658658   -45.264825   0.28560554 
    3330    261.14025    45.926159   -46.314225   0.22789117 
    3340    260.81514    45.868982   -46.860752   0.28224934 
    3350    260.70469    45.849559   -46.934366   0.28262745 
    3360    254.40587    44.741798   -46.493485   0.19873167 
    3370    281.75671     49.55193   -45.426954   0.26912886 
    3380    291.64118     51.29029   -43.744867   0.39604774 
    3390    301.34362    52.996637   -41.431603   0.26298451 
    3400    300.97078    52.931066    -38.39398   0.14363339 
    3410    323.66693    56.922589   -34.482418   0.27008387 
    3420    337.15082     59.29397   -30.249469   0.35690083 
    3430    357.75164    62.916991    -26.73453   0.24855899 
    3440    359.38852    63.204865   -24.698552   0.15804868 
    3450    375.08418    65.965227   -24.145575   0.38535373 
    3460    362.58896     63.76772   -24.753011   0.44550162 
    3470    366.41818    64.441157   -26.081913   0.28337302 
    3480    352.98966    62.079513   -27.871389   0.31662775 
    3490    340.80249    59.936183   -29.836287   0.50917798 
    3500    333.31304    58.619028   -31.887272    0.5178882 
    3510    314.51285    55.312681   -33.857771   0.22285612 
    3520    313.47223     55.12967   -35.683099  0.087356487 
    3530    304.24069    53.506138   -37.394854   0.30270719 
    3540    302.73271    53.240934   -38.925889   0.40097961 
    3550    296.72271    52.183968   -40.363589   0.22847837 
    3560    290.28224    51.051297   -41.596872   0.21808609 
    3570    283.80951    49.912952   -42.630028   0.35381452 
    3580    270.44748    47.563001   -43.371886   0.24017097 
    3590    266.17361    46.811365   -43.735545  -0.11992916 
    3600    274.55193    48.284842   -43.694894  0.027103345 
    3610     272.6763     47.95498   -43.267929   0.46283498 
    3620    298.82794    52.554211   -42.468636   0.43688359 
    3630    285.18202    50.154332   -41.356417   0.13550155 
    3640     306.1822    53.847588   -39.896111   0.25203348 
    3650     311.0897    54.710659   -37.986502   0.55607668 
    3660    339.80962    59.761568   -35.801219   0.38580484 
    3670    334.79091    58.878939   -33.563566   0.15268805 
    3680    346.25804    60.895638   -31.521695   0.40327292 
    3690    357.28317    62.834602   -29.727369   0.49849909 
    3700    372.19849    65.457728   -28.554158   0.36199952 
    3710    351.30957     61.78404   -28.343252   0.20151041 
    3720    350.81417    61.696913   -29.153168   0.25992309 
    3730    334.63195    58.850983   -31.161762   0.33311886 
    3740    316.41018     55.64636   -34.290968   0.22436586 
    3750    303.29923    53.340567   -38.040701    0.2203255 
    3760    295.58343    51.983605   -41.713544   0.37623609 
    3770    275.15228    48.390424    -44.55032   0.36595126 
    3780    263.91772    46.414628   -46.389138   0.12394999 
    3790    244.53245    43.005383   -47.299765  0.031693438 
    3800    252.26197    44.364755   -47.477034   0.17223469 
    3810    247.68018    43.558967    -47.06906   0.26049848 
    3820    263.30018    46.306022   -46.137312   0.20187132 
    3830    270.88563    47.640058   -44.769161   0.27919972 
    3840    279.66705    49.184427   -43.087539   0.34224881 
    3850     280.7279    49.370995   -41.250358   0.34244007 
    3860    289.46997    50.908445   -39.346714   0.18580088 
    3870    303.64057    53.400597    -37.44797   0.18763036 
    3880    302.74667    53.243389   -35.840285   0.44070188 
    3890    327.60141    57.614538    -34.53109   0.48414463 
    3900     320.3287    56.335502   -33.694212   0.25131385 
    3910     327.9906    57.682983   -33.329163   0.12054269 
    3920    320.27021    56.325215   -33.368168   0.14826783 
    3930    323.15335    56.832267   -33.715207    0.2712063 
    3940    316.93807      55.7392   -34.354113    0.2948775 
    3950    303.74851     53.41958   -35.129108   0.34879273 
    3960    311.01892    54.698211   -35.963134   0.43127807 
    3970    299.08781    52.599914   -36.845878   0.40474216 
    3980    297.32209    52.289379   -37.702638   0.29838982 
    3990    284.08492    49.961388   -38.444743   0.17709779 
    4000    290.49554    51.088809   -39.016048    0.1125528 
    4010    288.13259    50.673242   -39.464591   0.23423524 
    4020    289.94598    50.992159   -39.826153   0.33867592 
    4030    289.50154    50.913997   -40.125473   0.34050672 
    4040    288.80636    50.791737   -40.426486   0.36598392 
    4050    280.50969     49.33262   -40.736036    0.3393326 
    4060    278.74791    49.022779   -40.972852   0.16577674 
    4070    282.20965    49.631588   -41.010425  0.098447121 
    4080    287.97825    50.646099   -40.792744   0.29110036 
    4090    283.66698    49.887886   -40.342147   0.41073729 
    4100    285.87254    50.275773   -39.613039   0.31418856 
    4110    292.51673    51.444272   -38.610405   0.19280055 
    4120    298.08695    52.423894   -37.393685   0.21043024 
    4130    302.64874    53.226166   -36.067695   0.26369086 
    4140    313.47893    55.130848   -34.694798   0.22016317 
    4150     326.3536    57.395087   -33.421326   0.22135268 
    4160    320.04239    56.285148   -32.453904   0.43211261 
    4170    325.34886    57.218386   -31.789085   0.57839429 
    4180    323.61575    56.913587    -31.44922   0.40170229 
    4190    328.38479    57.752308   -31.476327   0.11325153 
    4200    330.59318    58.140693   -31.961223   0.11225011 
    4210    323.48423    56.890458   -32.980659   0.38170645 
    4220    320.95796    56.446169   -34.477582   0.47286085 
    4230    313.22405    55.086022   -36.450056   0.38189031 
    4240    301.46981     53.01883   -38.658695   0.28947736 
    4250    304.37943    53.530538   -40.994079   0.30170663 
    4260    281.76572    49.553515   -43.219484   0.20023848 
    4270    273.14733    48.037818   -45.024973  0.050334407 
    4280    256.03847    45.028921   -46.276376  0.091672343 
    4290    261.22201    45.940538   -46.936961    0.3249094 
    4300     257.2185    45.236451   -47.088412   0.37102492 
    4310    256.94424    45.188217   -46.735566   0.26380099 
    4320    258.00918    45.375505   -45.831402   0.18997921 
    4330    266.81206    46.923648   -44.338671   0.17090293 
    4340    291.31949    51.233716   -42.208582   0.22675085 
    4350    292.15279    51.380267   -39.714312   0.33895612 
    4360    309.99483    54.518107   -37.155215   0.37216396 
    4370    314.35693    55.285259   -34.828506   0.25654959 
    4380    320.71719    56.403824   -33.114053   0.21343952 
    4390    331.77424    58.348403   -32.054931   0.25685196 
    4400    332.81422    58.531302   -31.694233   0.31399066 
    4410    339.04913    59.627822   -31.899789   0.31442549 
    4420     336.7931    59.231059   -32.522465   0.43710138 
    4430    331.23866    58.254212   -33.428017   0.45494074 
    4440    326.38319    57.400292   -34.516753   0.30612879 
    4450    312.60065    54.976387   -35.698319   0.17068388 
    4460    309.56903    54.443221   -36.872212   0.24053299 
    4470    290.43184    51.077607   -37.959817   0.34007035 
    4480    289.99839    51.001377   -38.841992   0.25808048 
    4490    295.26372    51.927378   -39.554053   0.21999002 
    4500     293.8504    51.678822   -40.191947   0.33331964 
    4510    288.65363    50.764878   -40.752914   0.33048942 
    4520    279.53961    49.162015   -41.160461   0.20807367 
    4530    287.86897     50.62688   -41.354345    0.1665888 
    4540    279.03097    49.072561    -41.36426   0.23768354 
    4550    290.46808    51.083981   -41.122364   0.27913424 
    4560    295.46827    51.963353   -40.604451   0.30118992 
    4570    294.27687    51.753823    -39.84262    0.2759346 
    4580    301.98701    53.109789   -38.685182   0.27461286 
    4590    308.82625     54.31259   -37.076449   0.31285558 
    4600    329.28934     57.91139   -34.990703    0.3198213 
    4610    320.40207    56.348405   -32.770481   0.29291117 
    4620    348.96607    61.371892   -30.531884   0.34082763 
    4630    348.24756    61.245529   -28.634869   0.33066563 
    4640     350.7279    61.681742    -27.41291   0.37484953 
    4650    342.68761    60.267713   -26.899519   0.43090443 
    4660    350.81663    61.697346   -27.105126   0.37819391 
    4670    347.66315    61.142751   -28.230537    0.2781449 
    4680    328.14894     57.71083   -30.301569   0.26971207 
    4690    324.00494    56.982033   -33.162145   0.32778999 
    4700    309.52065    54.434713   -36.474816   0.29851372 
    4710     299.9077    52.744105   -39.729213   0.26072043 
    4720    276.15369    48.566541   -42.326079   0.30407068 
    4730    264.44744    46.507787   -43.972837   0.35599238 
    4740    259.75903    45.683247   -44.818303   0.25663789 
    4750     252.5788    44.420476   -45.028024   0.10690736 
    4760    254.65583    44.785758   -44.699867   0.10859818 
    4770    254.02121    44.674149   -43.901648    0.1917002 
    4780    279.47073      49.1499   -42.694936   0.21221836 
    4790    281.56916    49.518947   -41.251261   0.32960166 
    4800    296.75968     52.19047   -39.788321   0.36106622 
    4810    290.03532    51.007872   -38.388201   0.34548251 
    4820    298.10253    52.426634   -37.086028   0.27228957 
    4830    314.61722    55.331036    -35.87503   0.12677984 
    4840    311.91602    54.855982   -34.967987   0.16361795 
    4850    318.59752    56.031043   -34.367547   0.32110563 
    4860    311.97381    54.866145    -34.04922   0.36860266 
    4870    328.89098    57.841331   -33.984791   0.40710627 
    4880    323.61339    56.913173    -34.30202   0.42569589 
    4890    309.07634    54.356574   -34.931376   0.28694953 
    4900    295.30666     51.93493    -35.62528   0.12140236 
    4910    302.98267    53.284894   -36.292928   0.20940715 
    4920    307.96064    54.160358     -37.0298    0.3502377 
    4930    290.80435    51.143119   -37.888681   0.46987975 
    4940    288.78291    50.787614   -38.767557   0.39499693 
    4950    284.78795    50.085029    -39.75329   0.19499113 
    4960    285.20061    50.157602   -41.040204   0.14215453 
    4970    272.13502    47.859786   -42.985326   0.16231534 
    4980    264.23547    46.470509   -45.691606   0.25153943 
    4990    243.86055    42.887216   -48.638564    0.2607611 
    5000    239.83001    42.178374   -51.093131   0.23132148 
    5010     219.1558    38.542447   -52.749711   0.22644391 
    5020    216.08013    38.001536   -53.435562   0.19142941 
    5030    212.30502    37.337616     -53.2477   0.13298241 
    5040    227.35787    39.984926   -52.184062    0.1907447 
    5050    236.17036     41.53476   -50.198227   0.24281945 
    5060    255.76961    44.981637   -47.575963   0.23423773 
    5070    271.85033    47.809718   -44.591086    0.2855195 
    5080     296.0782     52.07062   -41.933278   0.38987278 
    5090    303.73484    53.417176    -39.78303   0.36449337 
    5100    300.21738    52.798568   -38.259016   0.20591771 
    5110    308.26022    54.213045   -37.060114   0.12130925 
    5120    312.60989    54.978011   -36.147141   0.28659517 
    5130    306.15528    53.842853   -35.483474   0.36075736 
    5140    301.03401    52.942187   -34.953795    0.3021057 
    5150    306.66913    53.933223   -34.463372   0.32608678 
    5160    319.62246    56.211297   -34.064883   0.31518343 
    5170    312.48516    54.956075   -33.890442   0.21340352 
    5180    316.70276    55.697815    -33.93314   0.10816011 
    5190    321.68156    56.573426   -34.243835   0.16048646 
    5200    316.10086    55.591961   -34.939213   0.38601899 
    5210    313.10672    55.065388   -36.054337   0.50164792 
    5220    303.40029     53.35834   -37.615037   0.42814306 
    5230    294.10724    51.723991   -39.543355   0.35328677 
    5240    287.50561    50.562977   -41.765906   0.26109698 
    5250    268.39484    47.202008   -44.042259   0.14798967 
    5260    255.44207    44.924032   -46.002558   0.10496491 
    5270     253.3075    44.548631   -47.514694   0.18140658 
    5280    242.19464    42.594236   -48.489847   0.24469957 
    5290    244.42106    42.985792   -48.863732   0.20942773 
    5300    240.02399     42.21249   -48.584889   0.17163749 
    5310    253.34169    44.554644   -47.507772   0.22504923 
    5320    262.37947    46.144098     -45.3996   0.30413979 
    5330    284.21178    49.983698   -42.203531   0.31866841 
    5340     299.2602    52.630231   -38.214221    0.4044125 
    5350    325.63473    57.268662   -34.595609   0.40542743 
    5360    337.30007    59.320219   -32.123904   0.33293725 
    5370    345.14384    60.699685   -30.967194   0.33361149 
    5380    339.79632    59.759229   -30.765647   0.22269671 
    5390    331.05843    58.222516    -31.16119   0.13717416 
    5400    328.83388    57.831289    -31.92099   0.29313129 
    5410    329.26661    57.907392   -33.006925   0.40779418 
    5420    316.55516    55.671857   -34.369336    0.2795981 
    5430    308.28697    54.217749   -35.838826   0.20607318 
    5440    300.47311    52.843542   -37.300653   0.23915113 
    5450    302.07247    53.124819   -38.725129   0.25450604 
    5460    288.75894    50.783398   -40.080453   0.30193665 
    5470    282.69444    49.716848   -41.223904   0.28932488 
    5480    275.24015    48.405877   -42.105376   0.29186324 
    5490    273.48553    48.097297   -42.681816    0.3412775 
    5500    264.45724    46.509512   -42.910656   0.35060799 
    5510    275.94787    48.530342   -42.731906    0.1946221 
    5520    280.31189    49.297833   -42.129187  0.062452457 
    5530    294.36922    51.770065   -41.068523   0.12044581 
    5540    301.63753    53.048327   -39.446182   0.33133178 
    5550    304.04646     53.47198   -37.195263    0.4657412 
    5560    320.86175    56.429249   -34.157211   0.39521778 
    5570    331.29321    58.263806   -30.572503   0.24903213 
    5580    356.80796    62.751029    -27.09942   0.27357874 
    5590    370.36591    65.135435   -24.423834   0.38987163 
    5600    391.58882    68.867862   -23.072165   0.38832995 
    5610    364.36003    64.079194   -23.264141   0.32998209 
    5620     371.3204      65.3033   -24.641964   0.20016327 
    5630    361.10689    63.507072   -27.189731   0.26119837 
    5640    341.64187    60.083801   -30.362943     0.315824 
    5650    329.11533    57.880786   -33.632242   0.30086905 
    5660    293.82717    51.674735   -36.148292   0.39264977 
    5670    308.79267    54.306685   -37.739462   0.47540589 
    5680    303.96651     53.45792   -38.856619   0.36002857 
    5690    300.78639    52.898639   -39.667503   0.13425779 
    5700    285.02528    50.126767   -40.224893  0.049563168 
    5710    288.69795    50.772671   -40.529953   0.16499758 
    5720    291.37182    51.242919   -40.653075   0.28284666 
    5730    282.24534    49.637865    -40.63459   0.33065609 
    5740    291.78895     51.31628    -40.40935   0.32724331 
    5750    290.73001    51.130045   -40.027141   0.35990456 
    5760    289.46699    50.907921   -39.507901   0.28005303 
    5770    293.06274    51.540297   -38.767116   0.22986957 
    5780    306.25191    53.859847   -37.841844   0.39805738 
    5790    311.72523    54.822428   -36.801578   0.47657579 
    5800    309.75379    54.475715   -35.766298   0.28892573 
    5810    328.65379    57.799617   -34.669584    0.1826521 
    5820    322.36192    56.693079   -33.710673    0.2910211 
    5830    319.57479    56.202914   -32.917938    0.3611227 
    5840    331.80315    58.353487   -32.227909   0.21553992 
    5850    332.06839    58.400135   -31.829859   0.18914141 
    5860    336.64558    59.205115   -31.905739      0.38668 
    5870    324.10639    56.999875   -32.594892   0.37503184 
    5880    322.62825    56.739918   -33.969558    0.1074736 
    5890    302.73837    53.241929   -35.959705  0.032250268 
    5900    288.10057    50.667612   -38.229637   0.19676384 
    5910     286.7716    50.433889   -40.507475   0.29108148 
    5920    275.62702    48.473916   -42.634098   0.22681049 
    5930    266.12702    46.803171   -44.343554   0.37208064 
    5940    261.33523     45.96045   -45.551968   0.50144521 
    5950    256.46729    45.104337   -46.277529   0.27075127 
    5960    236.43024    41.580465   -46.419438  0.024754835 
    5970    255.69825    44.969087   -45.879728   0.22448851 
    5980    263.89189    46.410084   -44.651822   0.49746729 
    5990    274.96519    48.357521   -42.795315   0.50597262 
    6000    285.04653    50.130504   -40.342055   0.23684068 
    6010    296.49538    52.143988   -37.588419   0.05130236 
    6020    311.64463    54.808253   -34.843362   0.19949696 
    6030    326.47045    57.415637   -32.609097   0.31331454 
    6040    323.17655    56.836346   -31.141984   0.30978551 
    6050     334.2397    58.781999   -30.398099   0.39144351 
    6060    334.05185    58.748961   -30.268807   0.41962121 
    6070    323.80576    56.947005   -30.629338   0.21165551 
    6080    317.39373    55.819335   -31.213758  0.025870075 
    6090    311.11226    54.714627   -31.885728   0.20409462 
    6100    314.34386     55.28296   -32.597824   0.46409708 
    6110    319.14161    56.126731   -33.414222    0.3681335 
    6120    309.30195    54.396251   -34.372265    0.2438046 
    6130    302.80534    53.253708    -35.31469   0.31167675 
    6140    305.55824    53.737854   -36.226745   0.37583054 
    6150    292.37735     51.41976   -37.118046    0.2068843 
    6160    291.33993     51.23731   -37.840565   0.13252724 
    6170    302.53639    53.206407   -38.481047   0.33647922 
    6180    290.06659    51.013371   -39.101727    0.3748899 
    6190    285.37694    50.188612   -39.620116   0.25636993 
    6200    279.69139    49.188707   -39.968333    0.2561308 
    6210    275.99851    48.539248   -40.089991   0.40253655 
    6220    279.77487    49.203388   -39.892723   0.42299165 
    6230    291.34145    51.237577   -39.246806     0.226678 
    6240    296.17293     52.08728   -37.976059   0.12078095 
    6250    313.80404    55.188023   -35.819425   0.27700967 
    6260    327.95848    57.677333   -32.866148   0.43929248 
    6270     331.0691    58.224391   -29.696817   0.41869882 
    6280     346.1225      60.8718   -26.806692   0.31798359 
    6290    354.93973    62.422466   -24.587706    0.2119295 
    6300    360.31897    63.368502   -23.307628   0.14982418 
    6310    364.16004    64.044023   -23.037303    0.2493272 
    6320    358.21424    62.998348     -23.8548   0.34137829 
    6330     351.9065     61.88902   -25.706346   0.34928913 
    6340    340.04525    59.803008   -28.453067   0.34583362 
    6350    318.58607    56.029029   -31.626689   0.36643276 
    6360    309.47902    54.427393   -34.658724   0.36458574 
    6370    291.76334    51.311774   -37.192811   0.24728948 
    6380    280.18569     49.27564   -38.949861   0.19409909 
    6390    284.82507    50.091556   -40.103749   0.28838369 
    6400    280.80662     49.38484   -40.807797   0.37778801 
    6410    279.51357    49.157434   -41.167912   0.36414556 
    6420    269.99224    47.482939    -41.20771   0.31045543 
    6430    282.40869    49.666592   -40.912673   0.21003266 
    6440    273.42919    48.087387   -40.358148   0.13489094 
    6450    280.33092    49.301181   -39.526072   0.15933342 
    6460    293.13949    51.553796   -38.384015   0.32971571 
    6470    293.23301    51.570243   -37.104841   0.36919787 
    6480    304.80205    53.604864   -35.654977   0.31555213 
    6490    311.87338    54.848483   -34.162229   0.34379514 
    6500    328.25181    57.728921   -32.708895   0.31634652 
    6510    323.38992    56.873872   -31.489021   0.21469944 
    6520    332.87232     58.54152   -30.489198   0.18563247 
    6530    332.60754    58.494955   -29.740007   0.31153869 
    6540    339.99759    59.794627    -29.33548   0.49006453 
    6550    333.17884    58.595428   -29.454706   0.46283014 
    6560    327.27517    57.557162   -30.329566   0.27412539 
    6570    315.80383    55.539723   -32.179793   0.17197346 
    6580    295.45492    51.961005   -34.776898   0.16501227 
    6590    287.39912    50.544249   -37.624461   0.18577258 
    6600    272.39754    47.905955   -40.233595   0.31296137 
    6610    261.61379    46.009439   -42.293929   0.46372932 
    6620    257.08029    45.212143     -43.6629   0.36662769 
    6630    261.58516    46.004404    -44.50733    0.2190536 
    6640    242.99827     42.73557    -44.78363    0.1362558 
    6650    262.50971    46.167003   -44.455878   0.14864471 
    6660    261.72329    46.028697   -43.576134   0.14775662 
    6670     280.4525    49.322562    -42.15371    0.2718106 
    6680    265.45788    46.685491   -40.304062    0.4200243 
    6690    304.84106    53.611725   -38.020526   0.41583317 
    6700    303.67383    53.406447   -35.522106   0.25687941 
    6710    317.14732       55.776   -33.356406   0.11714646 
    6720    315.79517    55.538199    -31.54453   0.16787286 
    6730    341.89135    60.127678   -30.219324   0.32569748 
    6740    345.08057    60.688558   -29.554581   0.40003218 
    6750    330.13048    58.059319   -29.625048   0.37948078 
    6760    346.52982    60.943434   -30.209833   0.29152269 
    6770    341.57132    60.071395    -31.44686     0.174989 
    6780    334.82381    58.884725   -33.262306   0.18079219 
    6790     311.7434    54.825624   -35.328193   0.22533193 
    6800     302.4438    53.190124   -37.308225   0.38880609 
    6810    289.85907    50.976875   -38.886454   0.37410181 
    6820    293.97309    51.700398    -40.07146   0.29270679 
    6830    277.71212    48.840617   -40.781299   0.20516031 
    6840    280.78191    49.380495   -41.065285   0.18799015 
    6850    266.89997    46.939108   -41.010498   0.34844455 
    6860    287.09817    50.491321   -40.673596   0.44681646 
    6870    289.66864    50.943384   -40.226261   0.45602477 
    6880    297.53802    52.327356    -39.76924   0.25546952 
    6890    298.01874    52.411898   -39.332418   0.15107177 
    6900    306.47083    53.898349   -38.954988    0.2432825 
    6910    298.57197    52.509194   -38.644122   0.28881385 
    6920     295.7553    52.013832   -38.372632   0.24482778 
    6930    285.28285    50.172066   -38.020452   0.13251362 
    6940    306.68784    53.936514   -37.517114   0.16561244 
    6950    304.27968    53.512995   -36.990916   0.29530878 
    6960    301.67927    53.055667   -36.483825   0.29117542 
    6970    302.24399    53.154984   -35.916936   0.29286357 
    6980    313.22965    55.087007   -35.239795   0.37227008 
    6990    309.35993    54.406448   -34.520529   0.34856404 
    7000    316.84497    55.722825   -33.703786   0.26413697 
    7010    334.79392    58.879468   -32.789327    0.3378326 
    7020    321.46652    56.535608   -32.032816   0.46141156 
    7030    333.61535    58.672194    -31.46389   0.39311547 
    7040    334.37107    58.805103   -31.241203   0.24460582 
    7050    337.66791    59.384911   -31.594757   0.14226431 
    7060    322.98377    56.802443   -32.623736   0.18245798 
    7070    307.97281    54.162498   -34.163549   0.29562206 
    7080    302.72922    53.240319   -36.000695   0.28466962 
    7090     295.2578    51.926338   -38.017101   0.22444895 
    7100    271.40633    47.731633   -39.912497   0.23455788 
    7110    279.48137    49.151771   -41.459235   0.35324745 
    7120    267.89526    47.114148   -42.710723   0.41956664 
    7130    276.62535     48.64949   -43.610887   0.33331573 
    7140    271.97185    47.831089    -44.21025   0.26529956 
    7150    270.75933    47.617845   -44.489682    0.2459937 
    7160    256.58152    45.124426   -44.374114   0.13407077 
    7170    260.08716    45.740955   -43.726464  0.060983741 
    7180    272.54342     47.93161   -42.385859    0.2481024 
    7190    283.42168    49.844746   -40.284753   0.48555479 
    7200    300.84701    52.909299   -37.548095   0.36885027 
    7210    313.16733    55.076047   -34.447724   0.13639087 
    7220    338.44748    59.522011   -31.509263   0.22448231 
    7230    337.84099    59.415349   -29.313631   0.33144371 
    7240    345.75029    60.806341   -28.001871   0.21146218 
    7250    338.19597    59.477778    -27.55216    0.3184398 
    7260    350.25337    61.598287   -27.801202   0.53030526 
    7270    337.63762    59.379583   -28.670554   0.45747857 
    7280    336.44104    59.169143     -29.9934   0.22273175 
    7290    320.08774    56.293124   -31.536171   0.22242104 
    7300    312.55284    54.967979   -33.002916     0.347016 
    7310    321.30629    56.507428   -34.332153   0.32393024 
    7320    311.62936    54.805568   -35.588243   0.19977566 
    7330    296.09442    52.073473    -36.58499    0.2865008 
    7340    290.29309    51.053205   -37.254991   0.41962977 
    7350    292.48897    51.439389   -37.642999   0.29938348 
    7360     304.8104    53.606333   -37.885363   0.15487216 
    7370     300.3274    52.817918   -38.117672   0.17887122 
    7380    301.52538    53.028603   -38.337604   0.22216401 
    7390    303.50854    53.377376   -38.558148   0.27057432 
    7400    297.36943    52.297706   -38.789514   0.34446553 
    7410    292.65041    51.467781   -38.993906   0.39228198 
    7420    286.41619    50.371382   -39.079288   0.29487455 
    7430    295.00109     51.88119   -39.007006   0.18755644 
    7440    296.59409    52.161348   -38.835413   0.31517666 
    7450    297.58851    52.336234   -38.581369   0.40993295 
    7460    289.54417    50.921494   -38.205925   0.23955338 
    7470    293.39247    51.598286   -37.541561   0.14829241 
    7480    307.87886    54.145975   -36.410164   0.23753598 
    7490    310.91933    54.680697   -34.775827   0.26368662 
    7500    311.24104    54.737274   -32.631914   0.16162115 
    7510     321.2514    56.497775   -30.010253   0.22524292 
    7520    339.80196     59.76022    -27.20846    0.4824658 
    7530    359.66884    63.254164   -24.698497   0.57036073 
    7540    381.21582    67.043584   -23.040669   0.42909005 
    7550     362.3431    63.724482   -22.670281   0.22842428 
    7560    357.73374    62.913843   -23.439219   0.23084304 
    7570    355.70292    62.556687   -25.255098   0.30516328 
    7580    351.03981    61.736596   -28.168837   0.34205821 
    7590    326.66184    57.449297   -31.779322    0.3780103 
    7600    302.51741    53.203069   -35.155659   0.36482585 
    7610    287.93168    50.637909   -37.715621   0.42014595 
    7620    286.24052    50.340488   -39.417729   0.32235607 
    7630     287.3614    50.537615   -40.525646    0.2028402 
    7640    278.98633    49.064711   -41.188009   0.20595051 
    7650    282.67596    49.713597   -41.492466   0.21672447 
    7660    277.82667    48.860763   -41.519625   0.17023022 
    7670     274.5665    48.287404   -41.270011   0.14034742 
    7680    279.84371    49.215496   -40.723215    0.2546923 
    7690    285.66326    50.238966   -39.906319   0.33861065 
    7700    288.92737    50.813019   -38.867164    0.2540133 
    7710    284.96958    50.116971   -37.630129   0.18871387 
    7720    315.49997    55.486284     -36.1435   0.39101946 
    7730    322.26163    56.675442   -34.608559   0.47135853 
    7740    319.18232     56.13389   -33.303245   0.32965892 
    7750    327.22132    57.547692   -32.150483   0.20745751 
    7760     335.8142    59.058903   -31.218587   0.18940841 
    7770    332.54094    58.483241   -30.628849   0.23009774 
    7780    333.82726    58.709464   -30.463231   0.32799831 
    7790    332.94558    58.554404   -30.854445   0.41185488 
    7800    320.27421    56.325918   -32.072697   0.47356323 
    7810    313.53649    55.140971   -34.240047   0.38868246 
    7820    300.03618      52.7667   -37.197226    0.2138721 
    7830    283.61156    49.878138     -40.3978   0.16285849 
    7840    269.00405    47.309149   -43.142319   0.27784225 
    7850    255.24199    44.888845   -45.147611   0.28770506 
    7860    244.38363    42.979209   -46.341381   0.17856978 
    7870    250.86811     44.11962   -46.830409   0.25048805 
    7880    252.65914    44.434606   -46.711549   0.31724211 
    7890    250.72735    44.094866   -46.032651   0.20943619 
    7900    243.07624    42.749281   -44.777279  0.079287449 
    7910    271.40837    47.731992   -42.804162    0.2070586 
    7920    286.25748    50.343471   -40.297979   0.39568526 
    7930    283.30165    49.823636   -37.777938   0.33662305 
    7940    299.75275    52.716855   -35.469458   0.20456248 
    7950    313.24017    55.088857   -33.508329   0.21869377 
    7960     312.5987    54.976044   -32.122288   0.24993241 
    7970    322.04205    56.636825   -31.222022   0.19458567 
    7980    336.42329    59.166021   -30.804104   0.25906574 
    7990    329.53022    57.953753   -30.933289   0.42167181 
    8000    313.05014    55.055438   -31.428875   0.48078221 
    8010    321.20073    56.488863   -32.114368   0.35159716 
    8020    320.58869    56.381226   -33.038594   0.16260926 
    8030     316.9726    55.745271   -34.221277   0.16781771 
    8040    299.49578    52.671661   -35.535904   0.34386953 
    8050    304.13795     53.48807   -36.839631   0.30500936 
    8060    295.00342    51.881601   -38.135883    0.2471233 
    8070    287.30034    50.526877   -39.340762   0.42997874 
    8080    288.96556    50.819735    -40.40463   0.45674403 
    8090    275.21035    48.400637   -41.326348    0.1809675 
    8100    262.41185    46.149793   -41.961651  0.098861169 
    8110    266.25086     46.82495   -42.223675   0.27388848 
    8120    274.16916    48.217524   -42.080523   0.34797077 
    8130    274.82744    48.333295   -41.387676   0.22651408 
    8140     290.8788    51.156212   -39.750418   0.25843514 
    8150    306.73369    53.944577   -36.784708   0.35373823 
    8160    331.42101    58.286281   -32.812238   0.29522053 
    8170     336.1317     59.11474   -28.953613   0.20808023 
    8180     353.4175    62.154755   -25.924021   0.24425511 
    8190    365.65341    64.306659   -23.976351   0.37385724 
    8200    375.88313    66.105736    -23.28461   0.37332895 
    8210    366.68785    64.488582   -23.871736   0.27652929 
    8220    361.18402    63.520636   -25.596603    0.3460698 
    8230    344.95573    60.666603   -28.229469   0.44577225 
    8240     332.3625    58.451859   -31.368511   0.33085798 
    8250    309.58043    54.445226    -34.42625   0.22880383 
    8260    292.54504    51.449251   -36.921454   0.21955256 
    8270    283.29559     49.82257   -38.722439   0.29490562 
    8280    273.91688    48.173158   -39.899638   0.32390571 
    8290    274.98048    48.360211   -40.555987   0.22707952 
    8300    280.58401    49.345691   -40.821923   0.20834859 
    8310     287.1257    50.496164   -40.824092   0.27923615 
    8320    286.35546    50.360703   -40.651907   0.31869141 
    8330    291.82586     51.32277    -40.30618   0.29435629 
    8340    298.93422    52.572901   -39.819216   0.16758786 
    8350    297.17738     52.26393   -39.282912   0.21948524 
    8360    297.38974    52.301278   -38.654914   0.30715373 
    8370    305.73724    53.769334   -37.866569   0.42411982 
    8380    315.35945    55.461571    -36.97722    0.3852714 
    8390    304.14265    53.488896    -36.04167   0.29847455 
    8400    300.92902    52.923723   -34.867878    0.2206809 
    8410    315.69456    55.520506   -33.204781   0.19314501 
    8420    323.35408    56.867568    -31.03997   0.32583419 
    8430    338.46883    59.525767   -28.509789    0.3865957 
    8440    362.42097    63.738177   -25.954361   0.38851542 
    8450    370.57154      65.1716   -23.966587   0.31503599 
    8460    360.36856    63.377224   -22.995732   0.25440351 
    8470    363.84193    63.988078   -23.033327   0.22107407 
    8480    368.51162    64.809326   -24.278745   0.26679496 
    8490    353.10754    62.100244   -26.941212   0.38588262 
    8500    335.21846    58.954131   -30.652259   0.44076278 
    8510    314.72135     55.34935   -34.638274   0.35271762 
    8520    305.71719    53.765808   -38.000274   0.18546096 
    8530    288.40107    50.720459   -40.460846   0.21850732 
    8540     276.8837    48.694925   -41.924505   0.30296982 
    8550    287.70458    50.597969   -42.799247   0.24233117 
    8560    280.47381     49.32631   -43.306992   0.25899809 
    8570    276.70797     48.66402    -43.51523   0.33894318 
    8580    262.43097    46.153156   -43.371693   0.34524874 
    8590    276.77576    48.675941   -42.828164   0.12784267 
    8600    271.71904    47.786629   -41.945647  0.051549854 
    8610    289.85378    50.975945   -40.689103   0.25612077 
    8620     298.6414    52.521404   -39.159987   0.45597931 
    8630    310.56643    54.618633   -37.527402   0.36331568 
    8640    303.28303    53.337718   -35.975607   0.27330748 
    8650     308.3761    54.233423   -34.424684   0.28075078 
    8660    307.84079    54.139281   -32.908108   0.27420033 
    8670     331.9836    58.385222   -31.420442   0.28446753 
    8680    341.67093    60.088913   -30.227684   0.32530629 
    8690    347.23788     61.06796   -29.530711   0.35269858 
    8700    334.89426    58.897114   -29.523708   0.44715333 
    8710    341.30636    60.024796   -30.225857   0.43912611 
    8720    331.41775    58.285708   -31.998387   0.25955616 
    8730    313.88499     55.20226   -35.186778   0.11306757 
    8740    284.48056    50.030968   -39.318028   0.16493554 
    8750     265.5966    46.709888   -43.204753    0.2336724 
    8760    247.58886    43.542907   -45.851749   0.25819124 
    8770    248.00919    43.616829   -47.314427   0.31079123 
    8780    243.01868    42.739159   -47.879201   0.26404814 
    8790    248.98217    43.787944   -47.745861  0.096483693 
    8800    260.00407    45.726342   -47.060179  0.034287096 
    8810    257.70121    45.321343   -45.954486   0.23624553 
    8820    261.02977    45.906729   -44.461098    0.3973179 
    8830    274.70583    48.311908   -42.564133   0.37098422 
    8840    281.87958    49.573539   -40.500361   0.27311328 
    8850    289.21122    50.862939   -38.456361   0.26922408 
    8860    305.09816    53.656941   -36.582914   0.26989365 
    8870    316.92347    55.736631   -35.049609   0.29245821 
    8880    309.80868    54.485368   -33.997227   0.35614841 
    8890    314.19735    55.257194   -33.298196    0.3395608 
    8900    310.97375    54.690267   -32.870895   0.31838757 
    8910     318.8853    56.081654   -32.679074    0.3558978 
    8920    312.37547    54.936784   -32.734985   0.32682135 
    8930    311.85046    54.844453   -32.985236    0.2522394 
    8940    308.37865    54.233873   -33.379943   0.18382575 
    8950    311.16788    54.724408   -33.919424   0.21911825 
    8960     309.8908    54.499811   -34.631058   0.28553234 
    8970    308.47752    54.251261   -35.580642   0.28839616 
    8980     291.1399    51.202131   -36.736222   0.29671404 
    8990    289.03927    50.832699   -38.021672    0.3282734 
    9000    283.83617    49.917641   -39.575573   0.31327825 
    9010     267.4438     47.03475   -41.464404   0.23422959 
    9020    260.87337    45.879224   -43.665822   0.16753195 
    9030    249.53617    43.885375   -46.108395   0.20122627 
    9040    240.84895    42.357573   -48.423952    0.2278137 
    9050    230.39835     40.51965   -50.290344   0.16958172 
    9060    227.89093    40.078675   -51.484243   0.14656398 
    9070    225.83868    39.717751   -51.972237   0.17294969 
    9080    227.23333    39.963025   -51.677373   0.20244691 
    9090    235.46649    41.410972   -50.469514   0.21093445 
    9100    242.27236    42.607905   -48.254979   0.26288572 
    9110    256.31498     45.07755   -45.091666   0.31707004 
    9120    270.78237    47.621898   -41.629787   0.30646229 
    9130    296.81909    52.200918    -38.65992   0.26673996 
    9140    303.93265    53.451965    -36.61857   0.28932356 
    9150    296.66049    52.173025    -35.33685   0.35547831 
    9160    301.83412      53.0829   -34.397886   0.28809758 
    9170    309.49987    54.431059    -33.63996    0.1545523 
    9180    314.62332    55.332109   -33.081841   0.20991792 
    9190    324.72709    57.109036   -32.763587   0.42475936 
    9200    325.71456      57.2827   -32.811851   0.46658116 
    9210    319.39513    56.171316   -33.240302   0.38863243 
    9220    320.79547    56.417591   -34.017124     0.308298 
    9230    307.12372    54.013171   -35.117956   0.18783712 
    9240    298.89455    52.565925   -36.404921    0.1294949 
    9250     297.9392    52.397909    -37.77966   0.21249096 
    9260    294.43007    51.780766   -39.261905   0.33942563 
    9270    276.59315    48.643827   -40.712167   0.33971215 
    9280    264.41375    46.501863   -41.933636   0.22604266 
    9290    255.84825    44.995468   -42.774149   0.15334569 
    9300    261.44709    45.980122   -43.182815   0.17641344 
    9310    256.37096    45.087395    -43.13195   0.23244896 
    9320    263.80019    46.393957   -42.496028   0.29969038 
    9330     274.4426    48.265615   -41.082058   0.31618488 
    9340     291.8065    51.319365   -38.749401   0.31855946 
    9350     295.7999    52.021675   -35.609989   0.27519909 
    9360    320.80245     56.41882   -32.007776   0.27208601 
    9370    336.60787    59.198484   -28.662125   0.33326111 
    9380    351.45156    61.809011   -26.255083   0.29881174 
    9390    351.16982    61.759461   -25.032241    0.2767369 
    9400    355.81859    62.577031   -24.802663   0.26264459 
    9410    359.42437     63.21117   -25.474749   0.38794802 
    9420    349.47272    61.460996   -26.947149   0.45341696 
    9430    333.10472    58.582391   -28.895838   0.27883523 
    9440    324.20089    57.016495   -30.972249   0.11935067 
    9450    315.43759    55.475313   -32.966699   0.21489564 
    9460    303.09527    53.304697   -34.692821   0.38881322 
    9470    297.88037    52.387564   -36.038089   0.44771697 
    9480    285.60143    50.228093   -37.012001   0.38838395 
    9490    286.09263    50.314479   -37.593553   0.34033858 
    9500    294.57764    51.806719   -37.923701   0.29997696 
    9510    288.53407    50.743849   -38.105241   0.16379505 
    9520    291.45839    51.258144   -38.130639   0.20349628 
    9530    293.85749    51.680069   -38.035178   0.36969234 
    9540     302.7655      53.2467   -37.878894   0.43237866 
    9550    303.47179    53.370914   -37.745293   0.32582174 
    9560    302.27094    53.159724   -37.668857   0.13863202 
    9570    288.79293    50.789376   -37.598411  0.096076204 
    9580    294.85679    51.855813    -37.39642   0.14585294 
    9590     302.5532    53.209364   -37.047672   0.24944966 
    9600    295.51517      51.9716   -36.617033    0.4801638 
    9610    305.34269    53.699944   -35.957612   0.44797334 
    9620    306.73756    53.945257   -34.943184    0.2121307 
    9630    312.97137    55.041584   -33.489815   0.11465694 
    9640    328.66289    57.801218   -31.549255   0.16162612 
    9650    344.80611    60.640289    -29.37315   0.33977565 
    9660    359.71796    63.262804   -27.468219   0.32994151 
    9670    343.33097     60.38086    -26.28947   0.32128253 
    9680    363.74696    63.971376   -25.825801   0.44912563 
    9690    364.61497     64.12403   -26.366632   0.47346049 
    9700    347.42351    61.100606   -28.076711    0.3202529 
    9710    333.03421    58.569991   -30.683197   0.25505525 
    9720    311.10485    54.713323   -33.724554   0.35038057 
    9730    305.01037    53.641501   -36.683241   0.41711757 
    9740    287.57263    50.574763    -39.25267   0.30307341 
    9750    266.11494    46.801047   -41.093605   0.19172728 
    9760    265.85693    46.755671   -42.209379   0.14300584 
    9770     268.8986    47.290604   -42.760688   0.12048188 
    9780    281.07066    49.431276   -42.915234   0.18042036 
    9790    275.46277     48.44503   -42.786869   0.28144542 
    9800    273.02845    48.016911    -42.36052   0.34330804 
    9810    282.32819    49.652435   -41.589634   0.32125203 
    9820    294.46134    51.786265   -40.508705   0.26436449 
    9830    294.73341    51.834114   -39.230759   0.23138025 
    9840    290.39716    51.071507   -37.761493   0.27847902 
    9850    297.15715    52.260373   -36.017486   0.36449775 
    9860    313.21981    55.085277   -33.921614   0.30944993 
    9870     326.6561    57.448287   -31.648354   0.31479707 
    9880     327.6876    57.629694   -29.428199   0.41184434 
    9890    335.88906    59.072068   -27.374352   0.32551201 
    9900    353.87957    62.236019   -25.489433   0.11730607 
    9910     347.8614    61.177617    -24.06698   0.28347817 
    9920    370.03717     65.07762    -23.15591   0.45022262 
    9930    369.89524     65.05266   -23.119261   0.33173001 
    9940    359.50771    63.225827   -24.647886   0.28551352 
    9950    334.54115    58.835014   -28.144578   0.30693898 
    9960    307.35526    54.053891   -32.841214   0.27490115 
    9970    283.93829      49.9356     -37.1484   0.20600375 
    9980    272.17723    47.867209     -40.1542    0.2363489 
    9990    269.13854    47.332802   -42.040117   0.33765146 
   10000    270.83093    47.630437   -43.186255   0.31213417 
Loop time of 0.762045 on 1 procs for 10000 steps with 60 atoms

Performance: 9656.555 ns/day, 0.002 hours/ns, 13122.582 timesteps/s
95.9% CPU use with 1 MPI tasks x no OpenMP threads

MPI task timing breakdown:
Section |  min time  |  avg time  |  max time  |%varavg| %total
---------------------------------------------------------------
Pair    | 0.58846    | 0.58846    | 0.58846    |   0.0 | 77.22
Neigh   | 0.058065   | 0.058065   | 0.058065   |   0.0 |  7.62
Comm    | 0.011193   | 0.011193   | 0.011193   |   0.0 |  1.47
Output  | 0.078027   | 0.078027   | 0.078027   |   0.0 | 10.24
Modify  | 0.019325   | 0.019325   | 0.019325   |   0.0 |  2.54
Other   |            | 0.006972   |            |       |  0.91

Nlocal:    60 ave 60 max 60 min
Histogram: 1 0 0 0 0 0 0 0 0 0
Nghost:    46 ave 46 max 46 min
Histogram: 1 0 0 0 0 0 0 0 0 0
Neighs:    157 ave 157 max 157 min
Histogram: 1 0 0 0 0 0 0 0 0 0
FullNghs:  314 ave 314 max 314 min
Histogram: 1 0 0 0 0 0 0 0 0 0

Total # of neighbors = 314
Ave neighs/atom = 5.23333
Neighbor list builds = 881
Dangerous builds = 0
unfix nvt

fix nve all nve
run ${Nrun0}
run 10000
Per MPI rank memory allocation (min/avg/max) = 5.02 | 5.02 | 5.02 Mbytes
Step Temp KinEng TotEng Press 
   10000    270.83093    47.630437   -43.186255   0.31213417 
   10010    272.88071    47.990929    -43.18691   0.23986545 
   10020    266.34284    46.841127   -43.185336   0.23697408 
   10030    271.11927    47.681147   -43.191224   0.17212601 
   10040    260.39603    45.795276   -43.183241   0.08077579 
   10050    263.74008    46.383386    -43.18967   0.20977362 
   10060     263.8862    46.409083   -43.184006   0.46892255 
   10070    273.53824    48.106567   -43.193277    0.4250678 
   10080    264.81434    46.572313   -43.190291   0.29163373 
   10090    253.05687    44.504554   -43.183668   0.19518455 
   10100    255.81274    44.989222   -43.183678   0.14374235 
   10110    268.96659     47.30256   -43.189906   0.13560873 
   10120    266.62457    46.890674   -43.183479   0.22236263 
   10130    275.55301    48.460899    -43.19224   0.33649968 
   10140      261.779    46.038496   -43.180789   0.32755318 
   10150    271.11037    47.679583    -43.19283   0.27448858 
   10160    254.33239    44.728875   -43.181953   0.25015803 
   10170    256.64515    45.135616   -43.186613   0.20064521 
   10180      259.855    45.700126   -43.186073   0.16621549 
   10190    264.91555    46.590113   -43.183746   0.17515812 
   10200    274.33328    48.246389   -43.191261   0.28137999 
   10210     263.5871    46.356482   -43.186718   0.34774273 
   10220    260.71044     45.85057   -43.187626   0.27872005 
   10230    256.62157     45.13147   -43.184447   0.14108922 
   10240    261.20427    45.937419   -43.186006   0.13580689 
   10250    268.37946    47.199303    -43.19006   0.23686354 
   10260    262.33004    46.135406   -43.182918   0.32244744 
   10270    265.40864    46.676831    -43.18944   0.25518951 
   10280    265.44678    46.683538   -43.183891   0.21435207 
   10290    280.98502    49.416215    -43.18875    0.2245062 
   10300    276.54466    48.635299   -43.189367   0.20492551 
   10310    262.86868    46.230134   -43.185044   0.24833484 
   10320    262.91545    46.238359   -43.185294   0.35547988 
   10330    264.51799    46.520195   -43.186273    0.3680813 
   10340    264.60447    46.535404   -43.190352   0.28160794 
   10350    253.27262    44.542497   -43.184046   0.14927079 
   10360     258.5113    45.463811   -43.187842   0.14173942 
   10370     257.4204    45.271957   -43.186751   0.24499474 
   10380     255.0383    44.853022   -43.184938   0.24632849 
   10390    258.29652    45.426039   -43.188289   0.28703853 
   10400    254.89147    44.827201    -43.18466   0.31411018 
   10410    262.58378    46.180029   -43.189145   0.21506648 
   10420    261.97913    46.073692   -43.187868   0.17823654 
   10430    256.91371    45.182847   -43.186268   0.21644286 
   10440    253.57923    44.596419   -43.186848   0.24341983 
   10450    259.41673    45.623047   -43.189698    0.1904117 
   10460    259.72896    45.677958   -43.183972   0.24083166 
   10470    265.74545    46.736066   -43.189512   0.42035254 
   10480     257.9977    45.373486   -43.183135    0.2849297 
   10490    261.63403       46.013   -43.184416   0.10833454 
   10500    270.28531    47.534481   -43.192904   0.22826019 
   10510    263.97345    46.424428   -43.186803   0.36281492 
   10520     265.7147    46.730658    -43.18885   0.14243493 
   10530    259.64538     45.66326   -43.183334 -0.023345592 
   10540    268.60103    47.238271   -43.191438   0.20154469 
   10550    257.92703    45.361058   -43.183538   0.41732991 
   10560    258.08504    45.388846    -43.18805   0.26172666 
   10570    266.50891    46.870334   -43.185303   0.16056966 
   10580    280.74298    49.373649   -43.190446   0.31572107 
   10590     275.2439    48.406537   -43.188174   0.26725982 
   10600    268.21641    47.170627   -43.184578   0.11248925 
   10610    268.13817    47.156869   -43.186451   0.19134891 
   10620    271.41612    47.733355   -43.188701   0.40955274 
   10630    258.33778    45.433295   -43.183873   0.45287661 
   10640     260.3899    45.794198   -43.184769   0.30723074 
   10650    280.10156    49.260843   -43.190938   0.21928166 
   10660     282.3208    49.651136   -43.186507   0.24910336 
   10670    275.23389    48.404777   -43.188408  0.091872104 
   10680    263.67294    46.371578   -43.182489  0.081702232 
   10690    278.63819    49.003483   -43.190737      0.31798 
   10700    279.41965    49.140917   -43.186422   0.50959904 
   10710    274.00511    48.188674   -43.189372   0.32885583 
   10720    264.49345    46.515879   -43.186709   0.12883797 
   10730    263.10961    46.272506   -43.185022   0.18239001 
   10740    268.64947     47.24679   -43.188301   0.20454639 
   10750    270.27855    47.533293   -43.192013   0.10186918 
   10760    256.39103    45.090925   -43.182292   0.12901248 
   10770    260.54206    45.820957   -43.188817   0.37882002 
   10780    269.32552    47.365685   -43.187606   0.39037515 
   10790    274.24595    48.231029   -43.190687   0.23329333 
   10800    262.32909    46.135237   -43.184746   0.19013951 
   10810    264.99537     46.60415   -43.187441   0.19195929 
   10820     266.8444    46.929336   -43.208123   0.29829457 
   10830     269.9469    47.474966   -43.199114   0.30659138 
   10840     259.2281    45.589874     -43.1858   0.26404677 
   10850     258.7777    45.510662   -43.187274   0.20987618 
   10860    260.80769    45.867674   -43.182701   0.07755699 
   10870    275.59727    48.468684   -43.193104  0.069055534 
   10880    257.55682     45.29595   -43.181345   0.23931792 
   10890    255.33961    44.906013   -43.187986   0.42101297 
   10900    256.61701    45.130667   -43.183296   0.42855322 
   10910    269.11798    47.329185   -43.187109    0.3867504 
   10920    271.05639    47.670089   -43.189984   0.32823374 
   10930    262.52709    46.170061   -43.184119   0.12142305 
   10940    265.86658    46.757368   -43.187915  0.017190823 
   10950    268.79528    47.272433   -43.184814   0.16726474 
   10960    272.48619    47.921546   -43.188617   0.37528266 
   10970    268.43291    47.208704    -43.18783   0.36648572 
   10980    263.77796    46.390048   -43.186906   0.25557336 
   10990    255.33708    44.905569   -43.184147    0.2354873 
   11000    259.94047    45.715157   -43.187053   0.16354265 
   11010    267.61456    47.064783   -43.187043   0.11581885 
   11020    274.56796    48.287661   -43.192208   0.15757567 
   11030    257.63475    45.309654   -43.182243   0.27054783 
   11040    264.56203     46.52794   -43.190038   0.40567905 
   11050    265.58854    46.708471   -43.186687   0.36037456 
   11060    268.35596     47.19517   -43.188969   0.22885631 
   11070    259.10889    45.568908   -43.184917   0.17405011 
   11080    264.00395    46.429792   -43.188454   0.14688174 
   11090    268.10864    47.151674   -43.185979   0.19472659 
   11100    277.17342    48.745878   -43.190221   0.33841731 
   11110     277.1154    48.735673    -43.18821   0.42301929 
   11120    266.36193    46.844486   -43.186491   0.29956608 
   11130    260.18626    45.758384    -43.18732   0.10442592 
   11140    258.46741    45.456092   -43.184914  0.078490245 
   11150    271.70161    47.783562   -43.191029   0.16801895 
   11160    266.58865    46.884357   -43.185779   0.23248898 
   11170    264.09292    46.445439   -43.186902   0.31522788 
   11180      266.288    46.831483   -43.188786   0.38018881 
   11190    263.79188    46.392497   -43.188129   0.24442112 
   11200    257.64134    45.310814   -43.184992   0.11020582 
   11210     266.0846    46.795712    -43.18759   0.20132579 
   11220    274.58805    48.291194    -43.19043   0.35644974 
   11230    262.44801    46.156152   -43.186051   0.39256435 
   11240    257.03625    45.204398   -43.182331   0.24371395 
   11250    273.34132    48.071934   -43.191431   0.13781455 
   11260    270.74053     47.61454   -43.184866    0.1528372 
   11270    265.01653    46.607873   -43.190763   0.20354907 
   11280    248.78419    43.753127   -43.182125   0.25815255 
   11290    271.51004    47.749872   -43.192487    0.3286463 
   11300    274.81326    48.330801     -43.1854   0.38148673 
   11310    271.34256    47.720417   -43.188674   0.25892063 
   11320    257.82687    45.343442   -43.185243  0.066061551 
   11330    254.95633    44.838607    -43.18287 0.0019962419 
   11340    269.96329    47.477849   -43.190848   0.19787396 
   11350    263.13759    46.277427    -43.18547   0.36812457 
   11360    257.25713    45.243244   -43.186373   0.38743643 
   11370    256.07743    45.035772   -43.185277   0.38442277 
   11380    265.93984    46.770253    -43.18783   0.31645928 
   11390    265.81696    46.748642   -43.186204   0.18876936 
   11400    262.42146    46.151483   -43.186528   0.12130814 
   11410     266.9269    46.943845   -43.186615    0.2187134 
   11420    264.28257    46.478792   -43.186266   0.32647007 
   11430    259.97212    45.720723   -43.188249   0.25136647 
   11440    256.03299    45.027956   -43.183613   0.15594411 
   11450    265.57563      46.7062   -43.188536   0.12770953 
   11460    263.93897    46.418365   -43.187271  0.088163099 
   11470    256.65818    45.137907   -43.184115   0.19570288 
   11480    261.35054    45.963142   -43.186425   0.41849956 
   11490     268.5281    47.225444   -43.186879   0.43084343 
   11500    270.53753    47.578839   -43.187382   0.25181049 
   11510    263.56983    46.353444   -43.186537   0.18318738 
   11520    265.28031    46.654263   -43.186649   0.21417493 
   11530    276.11938    48.560506   -43.191458   0.18870816 
   11540    266.76634    46.915607    -43.18171   0.25436398 
   11550    273.36697    48.076446   -43.193329   0.40638037 
   11560    254.59836    44.775652   -43.181737   0.39222041 
   11570    257.18302    45.230211   -43.187545   0.20708128 
   11580      257.288    45.248672   -43.186146   0.10244879 
   11590    262.08229    46.091834   -43.186331   0.23003853 
   11600    267.72833     47.08479   -43.189365   0.29080414 
   11610     259.9849    45.722971   -43.187171   0.12156294 
   11620    259.23518    45.591119   -43.185867   0.08783163 
   11630    271.29493     47.71204   -43.188516   0.29619737 
   11640    272.56291    47.935037    -43.18706   0.32654694 
   11650    270.85224    47.634186   -43.189855   0.28250168 
   11660    276.74534    48.670591   -43.193967   0.20888753 
   11670    266.68288     46.90093   -43.183798   0.23496453 
   11680    274.05673    48.197752   -43.188785   0.37598862 
   11690    277.12936    48.738129   -43.187118   0.32681932 
   11700    271.84627    47.809004   -43.189253   0.28680014 
   11710    268.95759    47.300978   -43.186969   0.19750689 
   11720     270.7219    47.611264   -43.188395  0.046430472 
   11730     269.8334    47.455005   -43.187274  0.037750176 
   11740    275.19467    48.397879   -43.189883   0.21339147 
   11750    268.67643    47.251531   -43.187478   0.40430678 
   11760    265.59863    46.710245   -43.185809   0.37903219 
   11770    268.98689    47.306131   -43.189284   0.20536544 
   11780     265.7355    46.734315   -43.185822   0.16549582 
   11790    273.01787     48.01505   -43.189322   0.29110126 
   11800    266.47581    46.864513   -43.186447     0.300495 
   11810    268.06163    47.143408   -43.188021   0.27676092 
   11820    269.33961    47.368163   -43.188271     0.226257 
   11830    260.21078    45.762696   -43.185235   0.25210841 
   11840    261.97503    46.072971   -43.185708   0.30981006 
   11850    266.34198    46.840976   -43.188452   0.27795124 
   11860      261.723    46.028647   -43.182593   0.22000734 
   11870    270.23383    47.525427   -43.188308   0.23617068 
   11880    271.97443    47.831542   -43.187137   0.20402809 
   11890    273.49648    48.099223   -43.187659   0.13192179 
   11900    270.70477     47.60825   -43.186798   0.15302595 
   11910    266.80457    46.922331   -43.185444   0.20501681 
   11920      268.754    47.265173   -43.186413   0.23815326 
   11930    270.55264    47.581495   -43.186031   0.25720055 
   11940     271.7282    47.788238   -43.186707   0.25967917 
   11950    273.02085    48.015573   -43.186579   0.32859836 
   11960    276.02522    48.543945   -43.188555   0.41472747 
   11970    270.59488    47.588924    -43.18561   0.36657263 
   11980    263.22711    46.293171   -43.184781   0.26544935 
   11990    272.02696    47.840781   -43.190117   0.17855566 
   12000    270.36784    47.548996   -43.187684   0.15850918 
   12010    266.31245    46.835783   -43.185765   0.19944791 
   12020    274.21806    48.226125   -43.190228   0.23757778 
   12030    267.27111    47.004381   -43.185621     0.248299 
   12040    265.06594    46.616561   -43.186465   0.19194608 
   12050    270.13914    47.508775   -43.191298   0.11715274 
   12060    264.31612    46.484692   -43.183506    0.1309225 
   12070    274.77359    48.323824   -43.190899   0.26833472 
   12080    267.53559    47.050894   -43.186211   0.41450628 
   12090     271.9411    47.825682   -43.186705   0.44144287 
   12100    285.19055    50.155833   -43.191214   0.37513912 
   12110    276.85451    48.689792   -43.187442   0.22874476 
   12120    262.74508    46.208397   -43.184453  0.074045062 
   12130    262.60133    46.183117   -43.185405    0.0829274 
   12140    272.88179    47.991117   -43.189206   0.23504165 
   12150    269.78421    47.446353   -43.187459   0.31012003 
   12160     258.3919    45.442813   -43.183393   0.25756794 
   12170    266.42312    46.855246   -43.188641   0.21904156 
   12180    264.79484    46.568885    -43.18654   0.19157024 
   12190     257.5199    45.289456   -43.185808   0.14205024 
   12200    257.99411    45.372854   -43.184762   0.17758369 
   12210     273.4459    48.090328   -43.190002   0.27461257 
   12220    274.84263    48.335967   -43.187419   0.39590186 
   12230    274.28425    48.237765    -43.18853   0.35235391 
   12240    273.75035    48.143871   -43.189358   0.28607786 
   12250    262.49181    46.163856   -43.184382    0.2119055 
   12260    269.36236    47.372165   -43.189804    0.1224014 
   12270    262.55293    46.174604   -43.180247   0.12024662 
   12280    277.13701    48.739474   -43.191742    0.2701066 
   12290    267.52379    47.048818   -43.183391   0.35198755 
   12300    270.40248    47.555087   -43.187957   0.28963576 
   12310    271.28846    47.710902   -43.186348   0.19887146 
   12320    264.46207    46.510361   -43.188176   0.19034514 
   12330    254.92272    44.832696   -43.182643    0.1450691 
   12340    264.77057    46.564615   -43.188677   0.15879357 
   12350    270.82134    47.628751   -43.187112   0.27488577 
   12360    272.78933    47.974857   -43.188169   0.40594713 
   12370    268.19736    47.167278   -43.188069   0.36879475 
   12380    256.00226    45.022552   -43.184063   0.13418236 
   12390    256.25264    45.066587   -43.182906  0.069305101 
   12400    276.51061    48.629311   -43.189591   0.30465698 
   12410    275.70404     48.48746   -43.190281   0.39687755 
   12420    262.95953    46.246112   -43.183897   0.36968338 
   12430    263.20038     46.28847   -43.187757   0.32312594 
   12440    264.22815    46.469221   -43.185933   0.21994098 
   12450    264.34612     46.48997   -43.187184  0.082273743 
   12460    264.85635    46.579702   -43.186381  0.048025002 
   12470    270.75498    47.617081   -43.186541   0.18772508 
   12480    279.52916    49.160176    -43.18791   0.29268497 
   12490    281.35695    49.481625   -43.190807   0.27794023 
   12500    266.90958    46.940799   -43.183461   0.32893711 
   12510    272.62969    47.946782   -43.190328   0.39273128 
   12520    261.91339     46.06213   -43.185982   0.21155223 
   12530    258.27712    45.422627    -43.18173  0.021672742 
   12540    280.13332     49.26643   -43.193442    0.1376694 
   12550    276.74218    48.670036    -43.18461   0.39227061 
   12560    279.33842    49.126632   -43.190052    0.4045407 
   12570    271.76293    47.794347     -43.1847   0.22009111 
   12580    279.17963    49.098706   -43.190114    0.1886648 
   12590    276.21149    48.576706   -43.185809   0.25073418 
   12600    272.01687    47.839007   -43.188228   0.16072476 
   12610    272.84556    47.984746   -43.189504   0.17692077 
   12620     274.4278    48.263012   -43.186821   0.37742085 
   12630    277.06899    48.727511   -43.189426   0.46431937 
   12640    276.34969    48.601009   -43.188576   0.25894583 
   12650    277.71144    48.840499   -43.187807  0.063482226 
   12660    273.34006    48.071714     -43.1893   0.16113459 
   12670     275.3123    48.418567   -43.189245   0.27169669 
   12680    272.59581    47.940824   -43.190985   0.23877945 
   12690    263.24392    46.296128   -43.183101   0.29949904 
   12700    276.68061    48.659209   -43.191912   0.42156503 
   12710     275.5289    48.456659   -43.190643   0.26395636 
   12720     275.7966     48.50374   -43.188139 -0.021970631 
   12730    278.36987    48.956296   -43.189723   0.12175035 
   12740    272.98013    48.008412   -43.185787   0.44929648 
   12750    278.35098    48.952972   -43.193022     0.436559 
   12760    266.82948    46.926713    -43.18306   0.18498797 
   12770    277.42902    48.790829   -43.193409   0.12532064 
   12780    268.62045    47.241687   -43.186349   0.17311519 
   12790    273.46475    48.093641    -43.19317  0.050967751 
   12800    271.54318      47.7557   -43.183199 -0.029832283 
   12810    290.08607    51.016797   -43.191418   0.31868268 
   12820    286.39491    50.367641   -43.193506   0.58774428 
   12830    261.41194     45.97394    -43.18346   0.37786169 
   12840    278.61413    48.999252   -43.192176   0.16567395 
   12850    280.77891    49.379967   -43.188182   0.25395948 
   12860    278.31112    48.945962   -43.190049   0.32669832 
   12870    268.45267    47.212178    -43.18572   0.17789224 
   12880    274.43669    48.264575   -43.187669   0.13153108 
   12890    280.73267    49.371835   -43.188969   0.35123274 
   12900    279.19473     49.10136   -43.189803   0.39041943 
   12910    275.86711    48.516139   -43.187157    0.1482843 
   12920    277.21049    48.752397   -43.190446  0.057139188 
   12930    269.89224    47.465353   -43.186562   0.20974101 
   12940    268.72929    47.260827    -43.18882   0.22845123 
   12950    278.65037    49.005625   -43.188535   0.21213127 
   12960    283.79128    49.909746   -43.190003   0.37313639 
   12970    271.07666    47.673654   -43.186318   0.42440982 
   12980    267.07306    46.969549   -43.188981   0.21931088 
   12990    264.67306    46.547468   -43.184797  0.033556207 
   13000    268.57796    47.234213    -43.18892   0.14283068 
   13010    266.83184    46.927126   -43.186013   0.34215137 
   13020    270.03853     47.49108   -43.191107   0.36988392 
   13030    254.60861    44.777454   -43.182166   0.30429886 
   13040    263.92225    46.415423   -43.191112   0.37877185 
   13050    269.02379     47.31262   -43.188097   0.34219716 
   13060     270.5941    47.588787   -43.189514   0.12470453 
   13070    261.14444    45.926897   -43.181815   0.05815576 
   13080    277.33193    48.773754    -43.19015   0.17234355 
   13090    273.40267    48.082725   -43.186105   0.27595508 
   13100    264.47763    46.513097   -43.185845   0.25238798 
   13110    264.02603    46.433675   -43.185545   0.16665427 
   13120    270.85918    47.635406    -43.18752   0.23338351 
   13130    268.79788    47.272891   -43.186789   0.37734638 
   13140    264.03473    46.435205   -43.186302   0.36540961 
   13150    259.27542    45.598196   -43.186137   0.26532935 
   13160    259.70263    45.673329   -43.184186    0.2471146 
   13170    268.59176     47.23664   -43.188345   0.26443146 
   13180    262.70236    46.200883   -43.184181   0.21199574 
   13190    264.54555    46.525041   -43.187078   0.18367852 
   13200    262.66125    46.193655   -43.184782   0.21468999 
   13210    264.20647    46.465408   -43.187172   0.20806892 
   13220    258.81837    45.517816   -43.183996   0.15583791 
   13230    258.07906    45.387795   -43.186937   0.18997371 
   13240    254.88235    44.825596   -43.182188   0.24279988 
   13250    265.83257    46.751388   -43.189393   0.27222801 
   13260    262.92393    46.239852   -43.181789   0.30486662 
   13270    276.24328    48.582296   -43.191682   0.34552324 
   13280    261.16611    45.930707   -43.182665   0.28173034 
   13290    260.77713    45.862298   -43.186874   0.16321288 
   13300     262.4079    46.149097   -43.184444   0.11404624 
   13310    265.78224    46.742536   -43.186907   0.20676792 
   13320    260.72324    45.852822   -43.183679   0.34109162 
   13330    264.00456    46.429899   -43.186918   0.37156793 
   13340    264.70417    46.552939   -43.185609   0.25267117 
   13350    261.76102    46.035333   -43.186351   0.15343829 
   13360     256.5315    45.115629   -43.182639   0.17755852 
   13370    268.89972      47.2908   -43.187778   0.20859468 
   13380    274.06461    48.199139    -43.18533   0.17515297 
   13390    273.24938    48.055765   -43.188154   0.24687039 
   13400    270.85166    47.634084   -43.183531   0.36445575 
   13410    286.77304    50.434141   -43.191847   0.32148897 
   13420    274.76309    48.321978   -43.186409    0.2014014 
   13430    268.83701    47.279771   -43.187927   0.18018767 
   13440    268.10042    47.150229   -43.183295   0.20310898 
   13450    281.46629    49.500855   -43.192919   0.24406266 
   13460    269.24851    47.352141   -43.185523   0.33752719 
   13470    263.07676    46.266729    -43.18677   0.45565024 
   13480    266.90937    46.940762   -43.185996    0.4177546 
   13490    276.08445    48.554364   -43.190375   0.16645748 
   13500    270.76264    47.618427   -43.185447 -0.026515192 
   13510     265.8818    46.760046   -43.188359  0.066694749 
   13520    262.59253    46.181569   -43.185845   0.22077284 
   13530    270.42733    47.559458   -43.189863    0.3332275 
   13540     267.0735    46.969627   -43.185103   0.39094352 
   13550    275.53917    48.458466   -43.192648   0.32414824 
   13560    264.26482    46.475671   -43.180902   0.19663332 
   13570     269.2009    47.343769   -43.188288  0.096292733 
   13580      268.959    47.301226   -43.185795   0.14934651 
   13590    267.71479    47.082409   -43.188462   0.32124201 
   13600    256.42305    45.096556   -43.181553   0.37679631 
   13610    270.12304    47.505944   -43.191136    0.2551148 
   13620     264.9642     46.59867   -43.183937  0.076184374 
   13630     267.6766    47.075693   -43.188091  0.067872774 
   13640    269.01274    47.310677   -43.184515   0.24198445 
   13650    274.08271    48.202322   -43.190509    0.3753312 
   13660    259.59698    45.654748   -43.182343   0.38246349 
   13670    261.42096    45.975528   -43.187498   0.37849365 
   13680    257.95445     45.36588   -43.186119    0.2647545 
   13690    262.29292    46.128876   -43.185137   0.15797527 
   13700    275.12497    48.385622   -43.189014   0.19279103 
   13710    265.72582    46.732614   -43.185471   0.27563934 
   13720    258.99515    45.548906    -43.18319   0.31617517 
   13730    270.42919    47.559784    -43.18933   0.27496474 
   13740      271.673    47.778531   -43.186219   0.21107699 
   13750     269.3464    47.369356   -43.187856   0.13740351 
   13760    262.56502     46.17673   -43.186017   0.14022384 
   13770    262.33798    46.136802   -43.185447   0.24021999 
   13780    268.79386    47.272183   -43.188778     0.352083 
   13790     262.9376    46.242255   -43.184103   0.36228617 
   13800    263.80399    46.394626   -43.187912   0.25573747 
   13810    253.25163    44.538806   -43.183972    0.1377395 
   13820    254.54043    44.765463   -43.186518  0.080401041 
   13830    254.60665     44.77711   -43.184663    0.1516091 
   13840    266.05619    46.790715   -43.191178   0.22575834 
   13850    263.57179    46.353789   -43.184382   0.30763434 
   13860    259.33411    45.608518   -43.182677   0.45418051 
   13870    271.62816    47.770644   -43.190111   0.45405022 
   13880     267.4265    47.031708   -43.185771   0.20980551 
   13890      260.145    45.751128    -43.18685  0.062421872 
   13900    258.77726    45.510586   -43.186635   0.16382308 
   13910    261.33513    45.960432   -43.187697   0.25968371 
   13920    251.63251    44.254054   -43.184532   0.26445309 
   13930    251.52231    44.234673   -43.187648   0.30500359 
   13940    257.80289    45.339226   -43.184633   0.39205357 
   13950    269.63623    47.420328   -43.189122   0.24760533 
   13960    263.42905    46.328685   -43.187403  0.032872697 
   13970    252.48887    44.404661   -43.181159  0.039388812 
   13980    266.01934    46.784234   -43.190587   0.31317148 
   13990    262.29878    46.129908   -43.184641   0.41495273 
   14000    256.38364    45.089624   -43.189802   0.32652295 
   14010    254.13311     44.69383    -43.18774   0.14495543 
   14020    264.83627     46.57617   -43.188401   0.18356054 
   14030    264.71369    46.554613   -43.184847   0.26605993 
   14040    268.51403     47.22297   -43.190517   0.19627732 
   14050    260.00466    45.726446   -43.183377   0.26811828 
   14060    260.39124    45.794432   -43.187694   0.44769468 
   14070    258.07536    45.387143   -43.187736   0.28250672 
   14080    249.48318    43.876056   -43.184324  0.015452926 
   14090    253.99104    44.668844   -43.186487  0.083014847 
   14100    260.45852    45.806265   -43.185822   0.28891163 
   14110    267.17998    46.988354   -43.191313   0.28460444 
   14120    259.61722    45.658307   -43.184407   0.18473934 
   14130    268.39686    47.202364   -43.186191    0.2257547 
   14140    273.94397    48.177922   -43.192153   0.31661052 
   14150    264.98511    46.602346   -43.187843   0.20314435 
   14160    260.26691    45.772566   -43.180842  0.043931743 
   14170    269.72189    47.435393    -43.19389   0.25437684 
   14180    265.19617    46.639464   -43.191811    0.4309935 
   14190    259.62731    45.660082   -43.183476   0.26949233 
   14200    264.85336    46.579176   -43.188899   0.22699709 
   14210    263.51635    46.344039   -43.186479   0.29556661 
   14220    262.20473    46.113367   -43.186529   0.26023457 
   14230    259.96606    45.719657   -43.184718   0.14416713 
   14240    264.50579    46.518049   -43.186394   0.19564538 
   14250    260.19862    45.760557   -43.184155   0.32109812 
   14260    255.45802    44.926838   -43.186651     0.386145 
   14270    255.91526    45.007252   -43.183885    0.2430171 
   14280     264.2721    46.476952   -43.187726   0.20155772 
   14290    259.18246    45.581846    -43.18219   0.24873723 
   14300    264.15063    46.455588   -43.188601   0.24647148 
   14310    254.56134    44.769141   -43.181502   0.19695146 
   14320    259.25712    45.594978   -43.187529   0.25617986 
   14330    256.05371    45.031601   -43.183022   0.26191248 
   14340    259.05072    45.558679   -43.186947    0.2318564 
   14350    249.06739    43.802932   -43.182824   0.22310044 
   14360    250.70735    44.091348   -43.184415   0.18185249 
   14370    258.70958    45.498682    -43.18359   0.17745695 
   14380    270.48885    47.570277   -43.190674   0.30629531 
   14390    253.21843    44.532967   -43.181226   0.37594253 
   14400    255.79546    44.986182    -43.18765   0.28181814 
   14410     255.6457    44.959845   -43.183634   0.15201025 
   14420    262.75907    46.210858    -43.18867   0.17274641 
   14430    255.91351    45.006944   -43.181927   0.25975758 
   14440    258.66864    45.491484   -43.186569   0.27808193 
   14450     257.4853    45.283371   -43.183699   0.32997152 
   14460    264.36945    46.494072   -43.186541   0.34511648 
   14470    263.36783     46.31792   -43.185869   0.26599331 
   14480    257.96827     45.36831   -43.183411   0.16271531 
   14490    259.22248    45.588886   -43.185429   0.19280711 
   14500    255.82598    44.991551   -43.183625   0.29822112 
   14510    258.80481    45.515431   -43.185553   0.26802081 
   14520    256.48707    45.107815   -43.185359   0.13444126 
   14530    248.44788    43.693981   -43.183138  0.089234652 
   14540    251.03632    44.149203   -43.182985   0.15767539 
   14550    261.99609    46.076673    -43.18837   0.23951823 
   14560    255.41334    44.918981   -43.183451   0.24950287 
   14570    251.76879    44.278021   -43.185088   0.28663905 
   14580    251.89644    44.300472   -43.182539   0.34720252 
   14590    268.30956    47.187011   -43.190427   0.29933316 
   14600    260.22936    45.765963   -43.182894   0.25225019 
   14610    257.68572    45.318618    -43.18869   0.18117145 
   14620    245.86824    43.240304   -43.180822   0.15973155 
   14630    257.27463    45.246321   -43.187344   0.24538581 
   14640    264.29614    46.481178   -43.185258   0.30727623 
   14650    260.31919    45.781762   -43.185801   0.33152872 
   14660     253.2568    44.539714   -43.183267   0.31575765 
   14670    259.66081    45.665974   -43.184336   0.28225922 
   14680    268.21263    47.169963   -43.186539   0.29401965 
   14690    264.72903    46.557311   -43.183941   0.27197523 
   14700    261.66416    46.018299    -43.18423    0.2031637 
   14710    262.28225       46.127   -43.185902   0.16980115 
   14720    256.59211    45.126289   -43.183484   0.15857919 
   14730    257.90287    45.356808   -43.184698   0.11522796 
   14740    264.19181     46.46283   -43.187089   0.14275941 
   14750    261.54736    45.997758   -43.184445   0.25572409 
   14760    262.60149    46.183145   -43.186615   0.33278938 
   14770    257.01194    45.200122   -43.184049   0.35468015 
   14780    258.19557    45.408285   -43.185745   0.33065353 
   14790    258.29708    45.426137   -43.185424    0.2934468 
   14800     255.5846    44.949099    -43.18294   0.20067555 
   14810    259.80972    45.692162     -43.1891   0.12266446 
   14820    249.31635    43.846716   -43.179692    0.1500633 
   14830    262.74031    46.207558   -43.190917   0.24142653 
   14840    251.27596    44.191349   -43.181243   0.25834581 
   14850    256.94675    45.188658   -43.191055   0.25675056 
   14860    243.77029    42.871343   -43.180781   0.29521203 
   14870    254.18952    44.703751   -43.190999   0.19843846 
   14880    250.97802    44.138951   -43.182857   0.14661964 
   14890    255.63053    44.957177   -43.188387   0.25860057 
   14900    254.89579     44.82796    -43.18358   0.36293825 
   14910     263.3424    46.313446   -43.186759   0.33216426 
   14920     264.5602    46.527618   -43.187313   0.19059827 
   14930    258.09833    45.391183   -43.185534  0.098359515 
   14940      255.302    44.899399   -43.184155   0.12004781 
   14950    263.46982    46.335855   -43.186595   0.20771645 
   14960    266.09015    46.796687   -43.188565   0.36863545 
   14970    264.99013    46.603229   -43.189255   0.38602921 
   14980    259.38098    45.616761   -43.185229   0.32002615 
   14990    254.18471    44.702904   -43.187016   0.28915365 
   15000    254.34703    44.731452   -43.184314   0.18151989 
   15010    266.89474    46.938189   -43.190591   0.13194811 
   15020    256.73418    45.151273   -43.183759   0.19220544 
   15030    261.18607    45.934218   -43.188145   0.34546924 
   15040    265.53916    46.699787   -43.185617   0.37012895 
   15050    272.92257    47.998291   -43.189835   0.25309822 
   15060    266.71837    46.907172   -43.188126   0.21777758 
   15070     258.9194    45.535583   -43.185019   0.23911338 
   15080    264.47189    46.512087   -43.191394   0.18152077 
   15090    255.06032    44.856896   -43.184012    0.1137686 
   15100    262.84632    46.226201   -43.193069   0.13056152 
   15110    254.20847    44.707082   -43.181378   0.25118883 
   15120    270.39994    47.554641   -43.193138   0.34009646 
   15130    265.90251    46.763688   -43.186294   0.28367938 
   15140    258.57291    45.474647   -43.186446   0.20930338 
   15150     267.5005    47.044723   -43.188345   0.18732723 
   15160    273.44215    48.089668   -43.188202     0.238496 
   15170    267.50463    47.045449   -43.187508   0.28897139 
   15180    261.08547    45.916526   -43.187553   0.29762545 
   15190    254.07125    44.682951   -43.183388   0.34875933 
   15200    268.73573     47.26196   -43.189432   0.33784034 
   15210    267.86111    47.108143   -43.186052   0.18401261 
   15220     266.8838    46.936264   -43.186585  0.087768198 
   15230    264.97517    46.600598   -43.188359   0.13789018 
   15240    271.60708    47.766939   -43.185146   0.20703985 
   15250    275.10871    48.382762   -43.193094   0.27670103 
   15260    261.06369    45.912695    -43.18832   0.28537224 
   15270    267.68972    47.078001   -43.187252    0.2739742 
   15280    264.06503    46.440535   -43.187046   0.26798204 
   15290    261.05898    45.911866   -43.187749   0.18864863 
   15300    256.66238    45.138646   -43.185286   0.14495853 
   15310    255.77648    44.982844   -43.186346   0.23718238 
   15320    255.96574     45.01613   -43.187368   0.32234444 
   15330    247.89436    43.596633   -43.184555   0.30102852 
   15340    249.15178    43.817773    -43.18371    0.2792927 
   15350     264.6918    46.550763   -43.189884   0.28445734 
   15360    257.21475     45.23579    -43.18308   0.25993431 
   15370    260.28847    45.776359   -43.190512   0.16184151 
   15380    251.54153    44.238054   -43.183213   0.15749197 
   15390    260.01148    45.727644   -43.185642   0.22096862 
   15400     266.9927    46.955416   -43.191452   0.24848459 
   15410    252.94313    44.484551   -43.182252   0.21098892 
   15420    269.17892    47.339903   -43.190023   0.14782671 
   15430    261.94197    46.067156   -43.187217    0.2111146 
   15440    265.56528     46.70438   -43.192294   0.18885251 
   15450    264.43889    46.506284   -43.184775   0.22978944 
   15460    259.00748    45.551074   -43.182931   0.35923949 
   15470    266.04661    46.789031   -43.188766    0.4130899 
   15480    255.02945    44.851467   -43.183858   0.31290184 
   15490    253.27277    44.542523   -43.184424   0.17131682 
   15500    259.87868    45.704289   -43.185119   0.17240099 
   15510    264.72667    46.556896   -43.186062    0.2453048 
   15520    263.55355     46.35058   -43.186677     0.254845 
   15530    252.62816    44.429157    -43.18414    0.2294339 
   15540    251.57366    44.243705   -43.184588   0.25029487 
   15550    257.10398    45.216309   -43.185476   0.24100491 
   15560    257.52769    45.290826   -43.186442   0.16084844 
   15570    257.09394    45.214544   -43.182869  0.099200415 
   15580    264.15177    46.455789   -43.187054   0.30722226 
   15590    272.41758    47.909478   -43.194096   0.33496556 
   15600    257.41359    45.270759   -43.182909   0.16986499 
   15610    256.12398    45.043959   -43.186968   0.17716963 
   15620    256.63546    45.133912   -43.187942   0.37759392 
   15630    256.05088    45.031103   -43.185652   0.38025531 
   15640    259.83035     45.69579   -43.188311   0.19902401 
   15650    259.61671    45.658217   -43.188678   0.12198296 
   15660    258.88597    45.529705   -43.184697   0.23587085 
   15670    264.65829     46.54487   -43.189374   0.23854418 
   15680     253.0961    44.511452    -43.18542   0.19960248 
   15690    247.73145    43.567984   -43.183149   0.22774878 
   15700     265.2789    46.654014   -43.188757   0.23596402 
   15710    266.87509    46.934733   -43.185972   0.16548908 
   15720    266.97897    46.953002   -43.187234   0.12910738 
   15730    265.59409    46.709446   -43.186731   0.29962306 
   15740    259.85594     45.70029   -43.184632   0.39475547 
   15750    260.28351    45.775486   -43.187906   0.33888422 
   15760    260.06536    45.737122   -43.186374   0.24585166 
   15770    266.92096      46.9428   -43.187496   0.23471549 
   15780    272.30917    47.890413   -43.193038   0.28051199 
   15790    262.29786    46.129746   -43.182011   0.22576222 
   15800    276.80933    48.681845   -43.194639   0.11065621 
   15810    265.41811    46.678497    -43.18692    0.1751577 
   15820    259.45847    45.630388   -43.188201    0.2514438 
   15830    253.52786    44.587385   -43.182167   0.19571092 
   15840    266.98833    46.954647   -43.191304   0.21436647 
   15850    265.15619    46.632434   -43.185554   0.28622935 
   15860     264.9708     46.59983   -43.191658   0.23166623 
   15870    243.49452    42.822843   -43.179358   0.17091084 
   15880    257.06463    45.209389   -43.191545   0.22472266 
   15890    257.92686    45.361028    -43.18636   0.33723643 
   15900    260.64476    45.839019   -43.191105   0.31455013 
   15910    254.92807    44.833638   -43.181528   0.29781038 
   15920    272.93084    47.999744    -43.19321   0.37319372 
   15930    266.37818    46.847342   -43.185637   0.31611725 
   15940    256.97421    45.193487   -43.187618   0.12418495 
   15950    253.73507    44.623827   -43.182447   0.10091355 
   15960    274.69392    48.309814   -43.194026   0.27291111 
   15970    261.83034    46.047525   -43.183179   0.33225696 
   15980    263.72098    46.380027    -43.19005   0.18539657 
   15990    256.75659    45.155215   -43.182722   0.16942249 
   16000    258.69857    45.496746   -43.190201   0.20785446 
   16010    253.08224    44.509015   -43.185372   0.10364803 
   16020    264.17525    46.459919   -43.187445  0.075144452 
   16030    266.62134    46.890107   -43.186418   0.21435951 
   16040    268.26464    47.179109   -43.191173   0.36646981 
   16050    264.86682    46.581543   -43.183064   0.35386835 
   16060    273.14348     48.03714   -43.193799   0.31475611 
   16070    260.89258    45.882603   -43.188436   0.24878251 
   16080    252.02261     44.32266   -43.185887   0.19787644 
   16090    257.38181    45.265171   -43.186631    0.2397811 
   16100    267.94519     47.12293    -43.19425   0.33459746 
   16110    251.85535    44.293245   -43.181647   0.28186924 
   16120    268.75577    47.265484   -43.194783   0.24294024 
   16130    252.06298     44.32976   -43.180947   0.25091488 
   16140    266.21927    46.819396   -43.192405   0.14587784 
   16150    264.01463    46.431671   -43.184756  0.067460486 
   16160    268.17908    47.164063   -43.191723    0.2602089 
   16170    266.83429    46.927557   -43.190561   0.40573887 
   16180    255.21581    44.884241   -43.181858   0.32160581 
   16190    268.09526    47.149322   -43.191927   0.13660776 
   16200    262.89703    46.235121   -43.188714   0.18851776 
   16210    250.95336    44.134614   -43.184543   0.25742334 
   16220    252.26632    44.365521   -43.185628   0.18261529 
   16230     264.2713     46.47681   -43.185638   0.14660616 
   16240    279.53406    49.161038    -43.19735   0.32024928 
   16250    258.32024    45.430211    -43.17998   0.42318116 
   16260    264.30036    46.481921    -43.19252   0.20410337 
   16270    255.47993    44.930692   -43.188267  0.029689816 
   16280    255.08901    44.861941   -43.187862   0.16920594 
   16290    258.98064    45.546353   -43.187563   0.37682125 
   16300    264.98388     46.60213    -43.18989   0.26341253 
   16310    266.67213     46.89904   -43.189959   0.13574236 
   16320    264.79746    46.569344   -43.186372   0.33217933 
   16330    265.02996    46.610234   -43.189227   0.40098033 
   16340    256.14431    45.047535   -43.183745   0.10175227 
   16350    262.00317    46.077919   -43.186989  0.017035155 
   16360    268.17541    47.163418   -43.189615   0.24522228 
   16370    265.98775    46.778679   -43.191791   0.41183764 
   16380    256.37263    45.087689   -43.183858   0.32023373 
   16390    265.94026    46.770326   -43.191227   0.26228333 
   16400    269.64582    47.422015    -43.18711   0.34064925 
   16410    271.05158    47.669243   -43.191671   0.29126171 
   16420    262.54792    46.173722   -43.187989  0.054302358 
   16430     261.6254    46.011481   -43.190854   0.05424995 
   16440    264.69326    46.551019   -43.188279   0.26453279 
   16450    273.19093    48.045486   -43.188661   0.35121377 
   16460    270.86998    47.637306   -43.190853   0.20662422 
   16470    256.25077    45.066257   -43.185619   0.12434434 
   16480    266.07925    46.794771   -43.189109   0.13165746 
   16490    279.28556    49.117334    -43.19019   0.28218943 
   16500    277.93156     48.87921   -43.191892   0.39276144 
   16510    263.66917    46.370915   -43.185994   0.38490944 
   16520    262.52462    46.169626   -43.191288   0.32689431 
   16530     262.0291     46.08248   -43.187698   0.25916684 
   16540    266.46946    46.863396     -43.1894   0.15985907 
   16550    272.44468    47.914245   -43.188477   0.12399095 
   16560    273.23548    48.053321   -43.189443   0.20544838 
   16570    262.52768    46.170164   -43.185173   0.32293932 
   16580    264.92398    46.591596   -43.189948   0.38969136 
   16590    273.00028    48.011957   -43.186109   0.25956442 
   16600    283.50821    49.859963   -43.194087    0.1696877 
   16610    262.93426    46.241669   -43.187785   0.21072711 
   16620    252.17279    44.349071   -43.186909   0.17741444 
   16630    261.27856    45.950483   -43.188111   0.09636742 
   16640     274.3784    48.254324   -43.188278   0.17749372 
   16650    276.87838    48.693989   -43.191531   0.35963049 
   16660    261.09092    45.917484   -43.182367   0.34420158 
   16670    268.20365    47.168384   -43.190196   0.17486622 
   16680    263.18254    46.285332   -43.185779   0.17135107 
   16690    259.21854    45.588193   -43.185612   0.24983376 
   16700     263.6064    46.359877   -43.186801   0.25159759 
   16710    265.73748    46.734665    -43.18676   0.27700107 
   16720    261.72561    46.029105   -43.188067   0.29706319 
   16730    249.74067    43.921341    -43.18373   0.18593684 
   16740    256.92478    45.184794   -43.187444   0.21441049 
   16750    264.34487    46.489748   -43.185128   0.29917622 
   16760    267.29775    47.009065   -43.191586   0.31915739 
   16770    258.50963    45.463518   -43.184645   0.29999612 
   16780     264.1986    46.464025   -43.189382   0.26225425 
   16790    255.80781    44.988355   -43.183734   0.23705858 
   16800    265.12484     46.62692   -43.188945   0.23681325 
   16810    265.43694    46.681809   -43.184667   0.26522175 
   16820    265.49868    46.692666   -43.188781   0.21962907 
   16830    255.41413    44.919119   -43.185101   0.16818873 
   16840    260.84122     45.87357   -43.187331   0.14103934 
   16850    270.87544    47.638266   -43.192648    0.1083798 
   16860    263.90963    46.413204   -43.188628   0.21326442 
   16870    260.67658    45.844614   -43.185007   0.34998845 
   16880    270.87837    47.638781   -43.191568   0.31592779 
   16890    262.92602    46.240218   -43.182984   0.22060621 
   16900    267.58607    47.059771    -43.18803    0.2044721 
   16910     260.5859    45.828667   -43.185183   0.27038438 
   16920    257.79959    45.338645   -43.187109   0.26910326 
   16930    259.10559    45.568327   -43.186798   0.22553611 
   16940    257.48563    45.283429   -43.187406     0.250447 
   16950    257.92377    45.360484   -43.187487   0.27063165 
   16960    257.23982    45.240199   -43.185539   0.26953274 
   16970    258.98686    45.547447    -43.18659     0.255879 
   16980    257.24201    45.240584   -43.185937   0.19386083 
   16990    255.20968    44.883164   -43.185484   0.16355759 
   17000    257.99431     45.37289   -43.184904   0.22168957 
   17010    261.34314    45.961841   -43.189118   0.33121368 
   17020    250.52037    44.058465   -43.181856   0.34936881 
   17030    262.82116    46.221778   -43.189522   0.24658255 
   17040    262.02957    46.082562   -43.185731   0.12855566 
   17050    259.23006    45.590218   -43.187621   0.12620363 
   17060     253.1771    44.525699   -43.183014   0.23571538 
   17070    263.84156    46.401233   -43.188196   0.32015522 
   17080    262.13735    46.101517   -43.186214   0.33858374 
   17090    256.29631    45.074266     -43.1846    0.2701447 
   17100     258.4657    45.455793    -43.18684   0.15592251 
   17110    258.56004    45.472383    -43.18456   0.10288336 
   17120    265.02811    46.609909   -43.189693   0.20100586 
   17130    253.94763    44.661209   -43.184028   0.34363697 
   17140    254.39548    44.739972   -43.188266   0.40146863 
   17150    255.78034    44.983524   -43.183821    0.3157521 
   17160    268.05737    47.142659   -43.190185   0.22903932 
   17170    261.67379    46.019991   -43.187313   0.18840147 
   17180    254.90278    44.829189    -43.18605   0.12658825 
   17190    254.48144     44.75509    -43.18463   0.11262923 
   17200    259.28241    45.599425   -43.190361   0.24548241 
   17210    248.72208    43.742203   -43.181586   0.37701881 
   17220    261.39565    45.971076   -43.189457   0.35450333 
   17230    265.05695    46.614981    -43.18618   0.17203793 
   17240    266.57562    46.882066   -43.187784  0.075236645 
   17250    260.48467    45.810864   -43.185188   0.21944198 
   17260    261.66515    46.018473   -43.188642   0.35442677 
   17270    260.38934    45.794099   -43.186297   0.31501015 
   17280    257.22049    45.236801   -43.185823   0.24992583 
   17290    260.22641    45.765445   -43.189787   0.29241504 
   17300    253.25794    44.539914   -43.184609   0.28733747 
   17310    253.38294    44.561898   -43.186025   0.12267751 
   17320     259.9226    45.712015   -43.187577   0.12771297 
   17330    269.80697    47.450356   -43.187906   0.32755003 
   17340    268.19088    47.166138   -43.190535   0.34818321 
   17350    250.86703    44.119432   -43.183629   0.19123422 
   17360    259.29922    45.602381     -43.1906   0.17235716 
   17370    261.64081    46.014193   -43.186977   0.27156374 
   17380    257.11449    45.218157     -43.1902   0.25342172 
   17390    245.13845    43.111958   -43.184926   0.14889153 
   17400    257.78564    45.336191   -43.189777   0.19202299 
   17410    266.96953    46.951342   -43.188318   0.36441936 
   17420    271.84907    47.809496   -43.191702   0.32356065 
   17430    253.85155    44.644312   -43.184808   0.24964735 
   17440    251.00666    44.143988   -43.185407   0.24302004 
   17450    266.53679    46.875237    -43.18883   0.20973394 
   17460    270.21289    47.521744   -43.187359   0.14736409 
   17470     265.5864    46.708093   -43.187688   0.11403391 
   17480    262.07701    46.090906   -43.185653   0.29848359 
   17490    260.78191    45.863139   -43.184363   0.42275302 
   17500    268.27818    47.181491   -43.192529   0.22417348 
   17510    252.96959    44.489204   -43.179939  0.054407531 
   17520    267.18464    46.989173    -43.19354   0.28134354 
   17530     260.2657    45.772355   -43.180627    0.4324195 
   17540    277.36123    48.778908    -43.19341   0.29930207 
   17550     262.7326    46.206202   -43.183195   0.11981495 
   17560    260.21551    45.763528   -43.188832   0.24762932 
   17570    260.67118    45.843666   -43.182775   0.35168825 
   17580    277.58078     48.81752   -43.194964   0.20417144 
   17590    261.51345    45.991793   -43.180479  0.072208052 
   17600    251.31649    44.198477   -43.187665   0.25594981 
   17610    250.29702    44.019184   -43.185253   0.37773734 
   17620    263.61722    46.361779   -43.190655   0.26614823 
   17630    259.98165      45.7224   -43.183493   0.15708131 
   17640     265.7261    46.732663   -43.191483   0.19611276 
   17650    260.99412     45.90046   -43.185562   0.25126245 
   17660    267.00714    46.957956   -43.189679   0.14839979 
   17670    257.36238    45.261754   -43.189965   0.18995668 
   17680    249.29335    43.842671    -43.18383   0.44272383 
   17690    273.25056    48.055973   -43.191849   0.46967075 
   17700    269.59557    47.413178   -43.188773   0.20224466 
   17710     256.0996    45.039672    -43.18678   0.15420565 
   17720     251.9557    44.310892   -43.184834    0.2911507 
   17730    258.66875    45.491502   -43.190101   0.30607176 
   17740    257.21517    45.235865   -43.186714    0.1310151 
   17750    256.40074    45.092632   -43.187683   0.11659133 
   17760    254.13115    44.693484     -43.1859   0.19150023 
   17770    260.13697    45.749714   -43.188711   0.17202504 
   17780    262.83735    46.224624   -43.184714   0.12917373 
   17790    268.82949    47.278449   -43.191254   0.21742938 
   17800    253.44311    44.572481   -43.184147   0.33735321 
   17810    254.41196    44.742871   -43.185787   0.33938006 
   17820    261.79976    46.042145   -43.188507   0.22609236 
   17830    259.50017    45.637722   -43.187307   0.23602965 
   17840    261.35474    45.963881   -43.187383   0.30901645 
   17850    261.05803    45.911699   -43.187248   0.29001355 
   17860    256.90559     45.18142    -43.18697   0.21913661 
   17870    254.35148    44.732234   -43.185351   0.31470896 
   17880    256.54478    45.117964   -43.188766   0.31794899 
   17890    246.83349    43.410061   -43.184556   0.18826345 
   17900    249.53354    43.884914   -43.185784   0.11457323 
   17910    261.95843     46.07005   -43.187699   0.17134054 
   17920    265.36469    46.669102   -43.189073   0.26339399 
   17930    257.53552    45.292203   -43.183732    0.2914159 
   17940    261.36978    45.966526   -43.188527   0.32489972 
   17950    259.50709    45.638939   -43.185665   0.28318609 
   17960    260.58262    45.828091   -43.186834   0.14900287 
   17970    254.46644    44.752451   -43.187075   0.11976926 
   17980    255.34395    44.906777   -43.187099   0.15168902 
   17990    263.18389    46.285569   -43.189506   0.25966291 
   18000    257.51771    45.289072   -43.188332   0.41745713 
   18010    254.50531    44.759287   -43.186871   0.37365332 
   18020    264.15532    46.456413   -43.189722   0.20995394 
   18030    260.42511    45.800389   -43.187438   0.16667703 
   18040    258.48999    45.460063   -43.193485   0.18471716 
   18050    250.66723    44.084292   -43.183799   0.16626116 
   18060    255.66821    44.963803   -43.188654   0.11798299 
   18070    251.89706    44.300579   -43.186508   0.30813999 
   18080    254.79729    44.810637   -43.184432   0.36490054 
   18090    265.87079    46.758109   -43.192039   0.21061784 
   18100    252.38544     44.38647    -43.18225   0.23974481 
   18110    262.70692    46.201686   -43.194543   0.29249168 
   18120    254.41799    44.743931    -43.18433   0.22927845 
   18130    260.58381      45.8283   -43.187093   0.18692789 
   18140     268.4634    47.214065   -43.186943   0.30801852 
   18150    270.79688     47.62445   -43.188027   0.43134825 
   18160    265.78051    46.742232   -43.185308     0.369217 
   18170    264.67773    46.548288   -43.188402   0.15828323 
   18180    256.21906    45.060681   -43.184335  0.094177267 
   18190    257.13968    45.222587   -43.185676   0.16787082 
   18200     264.4991    46.516874   -43.188114   0.23905317 
   18210    260.93068    45.889302   -43.188282   0.22563868 
   18220    256.31341    45.077274   -43.182915   0.28906796 
   18230    268.73484    47.261803   -43.189746    0.3134519 
   18240     270.7778    47.621093    -43.18728   0.20754299 
   18250    272.82791    47.981642   -43.188576  0.063286614 
   18260     258.9093    45.533807   -43.186406  0.099735135 
   18270    252.68461    44.439085   -43.182494   0.28493161 
   18280    264.20665    46.465441   -43.193007   0.33561922 
   18290    249.60368    43.897249   -43.182729   0.20749391 
   18300    256.99177    45.196575   -43.188091   0.29442095 
   18310    265.36214    46.668653   -43.189564    0.4380705 
   18320    265.77487    46.741239   -43.186757    0.3356638 
   18330    264.58043    46.531177   -43.186823   0.14509845 
   18340     264.9116    46.589419   -43.185523    0.1675064 
   18350    265.94401    46.770987   -43.188531   0.28128525 
   18360    256.46751    45.104375   -43.184878   0.25712428 
   18370    256.78897     45.16091   -43.186348   0.19146087 
   18380    261.16114    45.929833   -43.187359   0.23879403 
   18390    260.66244    45.842127   -43.187232   0.18990489 
   18400    258.48353    45.458928   -43.185166  0.093134415 
   18410    268.45072    47.211835   -43.186867   0.19052909 
   18420    278.03139    48.896767   -43.188421   0.41005074 
   18430    273.04855    48.020445   -43.186226   0.40696682 
   18440    264.94136    46.594652   -43.185969   0.21844362 
   18450    256.71701    45.148254   -43.185061  0.084271362 
   18460    252.70209    44.442158   -43.183978   0.10317127 
   18470     261.8567     46.05216   -43.188369   0.25225264 
   18480    260.76416    45.860017   -43.183219   0.34196064 
   18490     272.6519    47.950689   -43.187873   0.42265784 
   18500    272.88838    47.992277   -43.187529    0.3983761 
   18510    267.11905    46.977637   -43.193659   0.19236063 
   18520    245.92335    43.249997   -43.179668  0.076156275 
   18530    257.66776    45.315461    -43.18856   0.12673712 
   18540    265.38065    46.671909   -43.186745   0.31450814 
   18550    268.61078    47.239986   -43.186949   0.33638437 
   18560    265.65709    46.720526   -43.187585   0.26603908 
   18570     253.4033    44.565479   -43.185016   0.27403925 
   18580    254.79126    44.809576    -43.18798   0.27020382 
   18590    258.72843    45.501999   -43.186483   0.16657647 
   18600    260.68037    45.845281   -43.185789   0.13949835 
   18610    261.38588    45.969357   -43.188664   0.27893619 
   18620    259.42705    45.624863   -43.185277   0.33646182 
   18630     258.1733    45.404368   -43.188135   0.23330429 
   18640    244.40632      42.9832   -43.183071    0.1856295 
   18650    249.42357    43.865572    -43.18749   0.22449594 
   18660    247.57215    43.539968   -43.184702   0.22347932 
   18670    255.29318    44.897848   -43.187055   0.13280495 
   18680    262.15685    46.104947   -43.189009   0.16717056 
   18690    255.62051    44.955416   -43.183225   0.30998988 
   18700    262.76833    46.212487   -43.190301   0.31229175 
   18710    256.41775    45.095624   -43.185433   0.25349258 
   18720    254.30275    44.723664   -43.185677   0.24493115 
   18730    255.49086    44.932614   -43.187567   0.31561908 
   18740    251.05059    44.151712   -43.185164   0.31765435 
   18750    251.38263    44.210108   -43.186302   0.21557434 
   18760    254.88256    44.825633    -43.18479   0.14596633 
   18770    262.91041    46.237474   -43.187839   0.19399042 
   18780     260.7329     45.85452   -43.186789   0.28978714 
   18790    254.34981     44.73194   -43.185394   0.30115879 
   18800    258.16422    45.402772   -43.186076   0.32524812 
   18810    268.76165    47.266518   -43.190944   0.34147448 
   18820    254.29846    44.722908   -43.184582   0.22333331 
   18830      251.029    44.147917   -43.186721  0.078955177 
   18840    256.27544    45.070597    -43.18616    0.1284621 
   18850    262.08648    46.092572   -43.189765    0.2475678 
   18860    253.44267    44.572403   -43.185711   0.26503339 
   18870     252.7937     44.45827   -43.187811   0.24793317 
   18880    258.54966    45.470558    -43.18419   0.33243232 
   18890    270.01643    47.487194   -43.191445   0.33066903 
   18900    262.47813     46.16145   -43.186233   0.21659723 
   18910    259.05968    45.560253   -43.184984    0.1216561 
   18920    260.85792    45.876507   -43.186766   0.20750414 
   18930    256.16715    45.051551   -43.185647    0.3499297 
   18940    251.88625    44.298678   -43.186444   0.35235715 
   18950    246.26706    43.310444   -43.184839   0.21093542 
   18960    250.71457    44.092618   -43.184965   0.14471524 
   18970    261.82293    46.046222   -43.188782   0.21626366 
   18980     256.5004     45.11016   -43.185673   0.27468478 
   18990    249.05927    43.801504   -43.184903   0.24121447 
   19000    250.96538    44.136728   -43.185087   0.24926433 
   19010    261.66205    46.017927   -43.187471   0.31515718 
   19020    263.62671    46.363448   -43.187649    0.2616677 
   19030    254.63071    44.781341    -43.18491   0.14502919 
   19040    253.74324    44.625263   -43.187788   0.17314826 
   19050    248.59609    43.720047   -43.185514   0.27338513 
   19060    246.25079    43.307582    -43.18715   0.27291711 
   19070    249.40094    43.861594   -43.184404   0.19179175 
   19080    264.23277    46.470034   -43.190946   0.20955988 
   19090    253.14763    44.520515   -43.184575   0.26959084 
   19100    251.02916    44.147945   -43.186637   0.22398923 
   19110    261.93562    46.066039   -43.185257   0.15980658 
   19120    271.77705     47.79683    -43.19368   0.23734141 
   19130    247.57585    43.540618   -43.181993   0.32505645 
   19140    249.55012    43.887829   -43.188277   0.30484905 
   19150    254.46833    44.752784   -43.185579   0.27317748 
   19160    266.83057    46.926903   -43.192441   0.26692236 
   19170    252.69759    44.441368   -43.184506    0.3088478 
   19180    251.84882    44.292097   -43.188492   0.24525736 
   19190    259.07132    45.562302    -43.18742   0.14599738 
   19200    265.15586    46.632376    -43.19017   0.22702222 
   19210    253.52018    44.586034   -43.182397   0.29574895 
   19220    257.96252    45.367299   -43.191045   0.23056932 
   19230    253.20248    44.530161   -43.184075   0.17909731 
   19240    259.65551    45.665041   -43.192331   0.22932652 
   19250    250.42616    44.041896   -43.181362   0.26282276 
   19260    264.61815     46.53781   -43.195322   0.30753777 
   19270    257.62662    45.308226    -43.18352   0.31954368 
   19280    274.12079    48.209018   -43.193728   0.29190365 
   19290    263.44085    46.330761   -43.185408   0.22990025 
   19300    259.46843    45.632139   -43.188981  0.077985386 
   19310    257.53408     45.29195   -43.185108  0.080044943 
   19320    265.30428    46.658478    -43.19276    0.2834817 
   19330    252.61151    44.426229   -43.181776   0.37015261 
   19340    262.56607    46.176915   -43.191934   0.26777412 
   19350    252.87729     44.47297   -43.183411   0.17810438 
   19360    262.16831    46.106962   -43.191745   0.26889346 
   19370    251.90016    44.301126   -43.184823   0.34822748 
   19380    249.95551    43.959125   -43.188097   0.22968336 
   19390     255.0892    44.861975   -43.187365   0.12858832 
   19400    263.16932    46.283008   -43.189989   0.24898174 
   19410     259.8012    45.690663   -43.187681   0.27845426 
   19420    258.84816    45.523055   -43.188653   0.14916004 
   19430    259.74745     45.68121   -43.185355   0.12328784 
   19440    269.58551    47.411409    -43.19208   0.27438117 
   19450    261.90039    46.059844   -43.188994   0.29807976 
   19460    255.29483    44.898139   -43.185435   0.13411504 
   19470    265.16448    46.633892    -43.19071   0.27119757 
   19480    264.48527    46.514441   -43.192392   0.48894438 
   19490    252.28241    44.368351   -43.187564   0.38904243 
   19500    255.58744    44.949599   -43.188809   0.13934522 
   19510     259.2385    45.591702   -43.187036  0.098700603 
   19520    272.83341     47.98261   -43.192635   0.23779495 
   19530    263.50269    46.341637   -43.185602    0.2620029 
   19540      260.634    45.837126   -43.188386   0.22931974 
   19550    264.62831    46.539596   -43.188126   0.30955829 
   19560    264.25169    46.473361    -43.19191   0.40728994 
   19570    257.50025       45.286    -43.18689   0.31024661 
   19580    258.81933    45.517985   -43.190291   0.10060216 
   19590    250.26882    44.014225   -43.185983   0.14560684 
   19600    249.61835    43.899828   -43.186348   0.25530351 
   19610     255.1195    44.867303   -43.188808   0.16288139 
   19620    261.49993    45.989416   -43.188934   0.13438166 
   19630    256.07979    45.036188   -43.187709   0.26314145 
   19640    251.50112    44.230947   -43.188053   0.36781641 
   19650    249.70758    43.915521   -43.185651   0.27992525 
   19660    258.85766    45.524725   -43.190963   0.21870172 
   19670    253.91699     44.65582   -43.188113    0.2178369 
   19680    249.53753    43.885615   -43.185034   0.19376254 
   19690    262.71943    46.203886   -43.190453   0.16871096 
   19700    264.28554    46.479315    -43.18583   0.22321222 
   19710    267.39145    47.025544    -43.18825   0.35494248 
   19720    266.32719    46.838376   -43.189444   0.34358347 
   19730    262.24632    46.120681   -43.185341   0.22110143 
   19740    263.58184    46.355557   -43.187932   0.25057414 
   19750    263.00246    46.253662   -43.189885   0.31724066 
   19760    251.09508    44.159538   -43.188166   0.20849522 
   19770    243.61915    42.844762   -43.181659  0.090942751 
   19780    266.85637    46.931441   -43.195091   0.24842232 
   19790    256.93355    45.186336   -43.183112   0.38648979 
   19800    260.89569    45.883149     -43.1916   0.21875157 
   19810    251.51979     44.23423   -43.184358  0.089910443 
   19820    255.08194    44.860698   -43.189851   0.32698111 
   19830    257.12755    45.220455   -43.184719   0.39031495 
   19840    268.28874    47.183348   -43.191685   0.16716992 
   19850    254.55508    44.768039   -43.185742  0.093838425 
   19860    246.81151    43.406196   -43.184935   0.32483554 
   19870    257.75725    45.331199   -43.189349   0.42888513 
   19880    257.66883    45.315648   -43.187157   0.25209186 
   19890    249.77705    43.927738   -43.185239   0.14739559 
   19900    249.35422    43.853376   -43.186518   0.20681795 
   19910    250.67064    44.084892   -43.186155   0.27070743 
   19920    262.97773    46.249313   -43.192893   0.15314516 
   19930    252.58646    44.421823   -43.184595  0.066401651 
   19940    250.75562    44.099837   -43.185982   0.28162923 
   19950    263.38008    46.320073   -43.191449    0.4113657 
   19960    253.55685    44.592484    -43.18503   0.19760885 
   19970    247.84617     43.58816   -43.184971   0.05202092 
   19980    255.37355    44.911983   -43.190161   0.25612226 
   19990    250.23433     44.00816   -43.185235   0.35483933 
   20000    248.08291    43.629794   -43.187035   0.28079622 
Loop time of 0.601578 on 1 procs for 10000 steps with 60 atoms

Performance: 12232.381 ns/day, 0.002 hours/ns, 16622.948 timesteps/s
94.9% CPU use with 1 MPI tasks x no OpenMP threads

MPI task timing breakdown:
Section |  min time  |  avg time  |  max time  |%varavg| %total
---------------------------------------------------------------
Pair    | 0.45285    | 0.45285    | 0.45285    |   0.0 | 75.28
Neigh   | 0.041698   | 0.041698   | 0.041698   |   0.0 |  6.93
Comm    | 0.0069554  | 0.0069554  | 0.0069554  |   0.0 |  1.16
Output  | 0.082005   | 0.082005   | 0.082005   |   0.0 | 13.63
Modify  | 0.011221   | 0.011221   | 0.011221   |   0.0 |  1.87
Other   |            | 0.00685    |            |       |  1.14

Nlocal:    60 ave 60 max 60 min
Histogram: 1 0 0 0 0 0 0 0 0 0
Nghost:    32 ave 32 max 32 min
Histogram: 1 0 0 0 0 0 0 0 0 0
Neighs:    147 ave 147 max 147 min
Histogram: 1 0 0 0 0 0 0 0 0 0
FullNghs:  294 ave 294 max 294 min
Histogram: 1 0 0 0 0 0 0 0 0 0

Total # of neighbors = 294
Ave neighs/atom = 4.9
Neighbor list builds = 630
Dangerous builds = 0
unfix nve
undump 1

write_restart restart.equil





Total wall time: 0:00:01
