LAMMPS (19 May 2017)
variable Text equal 300.0
variable Nrun0 equal 10000
variable sigma equal 3.13
variable tau equal 1703.41 # fs
variable dt equal 0.005*${tau}
variable dt equal 0.005*1703.41
variable Tdamp equal 50.0*${dt}
variable Tdamp equal 50.0*8.51705

units real
atom_style atomic
boundary p p p
# processors 2 2 4
# processors 4 4 32
processors * * *

region simulation_space block 0.0 201.5 0.0 201.5 0.0 161.2 units box
create_box 8 simulation_space
Created orthogonal box = (0 0 0) to (201.5 201.5 161.2)
  1 by 1 by 1 MPI processor grid

read_data samples/MoS2unitcell_new.xyz add merge
  orthogonal box = (-0.5 -0.5 -0.5) to (201.5 201.5 161.2)
  1 by 1 by 1 MPI processor grid
  reading atoms ...
  60 atoms

# mass 1 18.0

neighbor 2.0 bin
neigh_modify delay 0 every 1 check yes

variable cutoff equal 2.5*${sigma}
variable cutoff equal 2.5*3.13
pair_style hybrid lj/cut ${cutoff} sw
pair_style hybrid lj/cut 7.825 sw
# pair_modify tail yes

# for SW potentials
pair_coeff * * sw mos2.sw S S S S Mo Mo Mo Mo
# for LJ potentials
variable epsilon_lj equal 0.00693
pair_coeff 1 2 lj/cut ${epsilon_lj} ${sigma}
pair_coeff 1 2 lj/cut 0.00693 ${sigma}
pair_coeff 1 2 lj/cut 0.00693 3.13
pair_coeff 2 3 lj/cut ${epsilon_lj} ${sigma}
pair_coeff 2 3 lj/cut 0.00693 ${sigma}
pair_coeff 2 3 lj/cut 0.00693 3.13
pair_coeff 3 4 lj/cut ${epsilon_lj} ${sigma}
pair_coeff 3 4 lj/cut 0.00693 ${sigma}
pair_coeff 3 4 lj/cut 0.00693 3.13
pair_coeff 1 4 lj/cut ${epsilon_lj} ${sigma}
pair_coeff 1 4 lj/cut 0.00693 ${sigma}
pair_coeff 1 4 lj/cut 0.00693 3.13

thermo_style custom step temp ke etotal press
thermo_modify flush yes
thermo 10

min_style cg
minimize 1.0e-8 1.0e-8 1000 1000
Neighbor list info ...
  update every 1 steps, delay 0 steps, check yes
  max neighbors/atom: 2000, page size: 100000
  master list distance cutoff = 9.825
  ghost atom cutoff = 9.825
  binsize = 4.9125, bins = 42 42 33
  4 neighbor lists, perpetual/occasional/extra = 4 0 0
  (1) pair lj/cut, perpetual, skip from (3)
      attributes: half, newton on
      pair build: skip
      stencil: none
      bin: none
  (2) pair sw, perpetual, skip from (4)
      attributes: full, newton on
      pair build: skip
      stencil: none
      bin: none
  (3) neighbor class addition, perpetual, half/full from (4)
      attributes: half, newton on
      pair build: halffull/newton
      stencil: none
      bin: none
  (4) neighbor class addition, perpetual
      attributes: full, newton on
      pair build: full/bin/atomonly
      stencil: full/bin/3d
      bin: standard
Per MPI rank memory allocation (min/avg/max) = 6.405 | 6.405 | 6.405 Mbytes
Step Temp KinEng TotEng Press 
       0            0            0   -108.73601   0.90038719 
      10            0            0   -123.07706  0.074245296 
      20            0            0   -125.62947 -0.063791383 
      30            0            0   -125.98506  0.010772865 
      40            0            0   -126.03954 0.0050304697 
      50            0            0   -126.04858 0.0014266194 
      60            0            0   -126.05082 -0.0011996935 
      70            0            0   -126.05657 0.00042049424 
      80            0            0   -126.05827 0.0003931633 
      90            0            0   -126.06088 -0.0022402284 
     100            0            0   -126.06218 -0.0004942036 
     110            0            0    -126.0636 -0.00075500175 
     120            0            0   -126.06546 -0.00060140227 
     130            0            0   -126.06632 -0.0018007294 
     140            0            0   -126.06718 -0.00018863239 
     150            0            0   -126.06726 -0.0001585445 
     160            0            0   -126.06737 -4.1500921e-05 
     165            0            0   -126.06738 -5.7743579e-06 
Loop time of 0.0420201 on 1 procs for 165 steps with 60 atoms

96.7% CPU use with 1 MPI tasks x no OpenMP threads

Minimization stats:
  Stopping criterion = energy tolerance
  Energy initial, next-to-last, final = 
        -108.736005732      -126.06737528     -126.067376073
  Force two-norm initial, final = 19.1139 0.00470703
  Force max component initial, final = 3.8936 0.0016953
  Final line search alpha, max atom move = 1 0.0016953
  Iterations, force evaluations = 165 320

MPI task timing breakdown:
Section |  min time  |  avg time  |  max time  |%varavg| %total
---------------------------------------------------------------
Pair    | 0.040183   | 0.040183   | 0.040183   |   0.0 | 95.63
Neigh   | 0.0002079  | 0.0002079  | 0.0002079  |   0.0 |  0.49
Comm    | 0.00050616 | 0.00050616 | 0.00050616 |   0.0 |  1.20
Output  | 0.00041938 | 0.00041938 | 0.00041938 |   0.0 |  1.00
Modify  | 0          | 0          | 0          |   0.0 |  0.00
Other   |            | 0.0007038  |            |       |  1.67

Nlocal:    60 ave 60 max 60 min
Histogram: 1 0 0 0 0 0 0 0 0 0
Nghost:    280 ave 280 max 280 min
Histogram: 1 0 0 0 0 0 0 0 0 0
Neighs:    257 ave 257 max 257 min
Histogram: 1 0 0 0 0 0 0 0 0 0
FullNghs:  1038 ave 1038 max 1038 min
Histogram: 1 0 0 0 0 0 0 0 0 0

Total # of neighbors = 1038
Ave neighs/atom = 17.3
Neighbor list builds = 2
Dangerous builds = 0
reset_timestep 0
dump 1 all atom 10 relax.lammpstrj

# velocity all create ${Text} 8782734 mom yes rot yes dist gaussian

fix nvt all nvt temp ${Text} ${Text} ${Tdamp}
fix nvt all nvt temp 300 ${Text} ${Tdamp}
fix nvt all nvt temp 300 300 ${Tdamp}
fix nvt all nvt temp 300 300 425.8525
timestep ${dt}
timestep 8.51705
run ${Nrun0}
run 10000
Per MPI rank memory allocation (min/avg/max) = 6.283 | 6.283 | 6.283 Mbytes
Step Temp KinEng TotEng Press 
       0            0            0   -126.06738 -5.7743579e-06 
      10 2.0059036e-06 3.5277384e-07   -126.06738 -9.413618e-05 
      20 2.7350773e-06  4.81012e-07   -126.06738 -0.00021092312 
      30  4.09189e-06 7.1963167e-07   -126.06738 -0.00019609032 
      40 6.687221e-06 1.1760668e-06   -126.06738 -0.00013934987 
      50 9.896795e-06 1.7405275e-06   -126.06738 -0.00014103543 
      60 1.4194832e-05 2.4964138e-06   -126.06738 -0.00013316828 
      70 2.0026655e-05 3.5220436e-06   -126.06737 -7.0626419e-05 
      80 2.7302918e-05 4.8017038e-06   -126.06737 -7.2572876e-05 
      90 3.6641303e-05 6.4440252e-06   -126.06737 -0.00017439747 
     100 4.8060464e-05 8.4522877e-06   -126.06737 -0.00018795148 
     110 6.2151106e-05 1.0930378e-05   -126.06737 -8.6841929e-05 
     120 8.0175102e-05 1.4100218e-05   -126.06737 -8.055607e-05 
     130 0.00010164396 1.7875899e-05   -126.06737 -0.00016135385 
     140 0.00012894184 2.2676716e-05   -126.06736 -0.00014176236 
     150 0.00016100393 2.8315405e-05   -126.06736 -5.7776772e-05 
     160 0.00019984149 3.5145683e-05   -126.06735 -8.9169535e-05 
     170 0.00024707005 4.3451665e-05   -126.06734 -0.00018591497 
     180 0.00030526633 5.3686517e-05   -126.06734 -0.00012223417 
     190 0.0003729705 6.5593498e-05   -126.06732 3.6339696e-05 
     200 0.00045477032 7.9979452e-05   -126.06731 2.773636e-05 
     210 0.00055436139 9.7494314e-05   -126.06729 -6.6584491e-05 
     220 0.00067334332 0.0001184194   -126.06727 -6.4278754e-05 
     230 0.00081036634 0.00014251734   -126.06725 -8.9463426e-05 
     240 0.00098603117 0.00017341113   -126.06722 -0.00019067041 
     250 0.0011888099 0.00020907338   -126.06718 -0.00013550342 
     260 0.0014323632 0.00025190655   -126.06713 0.00014971969 
     270 0.0017331846 0.00030481136   -126.06707 0.00032591752 
     280 0.0020785983 0.00036555849   -126.06701 0.00013238733 
     290 0.0025084238 0.00044115096   -126.06692 -0.00011005575 
     300 0.0030182751 0.00053081738   -126.06682 -8.2356512e-05 
     310 0.0036303045 0.00063845365    -126.0667 2.172409e-05 
     320 0.0043604191 0.00076685729   -126.06655 8.4702868e-05 
     330 0.0052495643 0.00092322929   -126.06637 0.00020078506 
     340 0.0063185763 0.0011112341   -126.06616 0.00025971867 
     350 0.0076112843 0.0013385798   -126.06589 0.00016172243 
     360 0.0091592788 0.0016108222   -126.06558 9.7692748e-05 
     370  0.011039388 0.0019414728   -126.06542 0.00031236974 
     380  0.013314091 0.0023415198   -126.06495 0.00064366005 
     390  0.016065956 0.0028254843   -126.06461 0.00066146664 
     400  0.019400366 0.0034118995   -126.06392 0.00051777822 
     410   0.02344326 0.0041229145   -126.06309 0.00053794877 
     420  0.028359072 0.0049874474   -126.06208 0.00054535039 
     430  0.034295228 0.0060314261    -126.0613 0.00048180128 
     440  0.041540871 0.0073057013    -126.0598 0.00059550134 
     450  0.050333036   0.00885196   -126.05798 0.00088454729 
     460  0.061032471  0.010733646   -126.05576 0.0012618481 
     470  0.074079445  0.013028189   -126.05306 0.0016100909 
     480  0.089885816   0.01580802   -126.04977 0.0017947946 
     490   0.10915784  0.019197348   -126.04576 0.0016647217 
     500   0.13276913  0.023349814   -126.04087 0.0012686837 
     510   0.16123692  0.028356381    -126.0349 0.0013722527 
     520   0.19619825  0.034504953   -126.02761 0.0022836696 
     530   0.23863552  0.041968302   -126.01895 0.0030620662 
     540   0.29031216  0.051056559   -126.00831 0.0033620091 
     550   0.35325584  0.062126324   -125.99506 0.0036512265 
     560   0.42982139  0.075591739   -125.97888  0.003944559 
     570   0.52308737  0.091994222   -125.95912 0.0043048159 
     580   0.63662855   0.11196246     -125.935  0.005265134 
     590   0.77442075   0.13619567   -125.90555 0.0070025493 
     600   0.94180852   0.16563379   -125.86963 0.0083584281 
     610     1.145234   0.20140978   -125.82583  0.008366913 
     620    1.3917042   0.24475594   -125.77242 0.0089515852 
     630    1.6906991   0.29733952   -125.70736  0.011759238 
     640    2.0521998   0.36091585   -125.62768  0.014873195 
     650    2.4892561   0.43777997    -125.5311   0.01713957 
     660    3.0161416   0.53044217   -125.41378   0.02005475 
     670    3.6497214   0.64186844   -125.27166  0.023944436 
     680    4.4076682   0.77516688   -125.09953  0.027649196 
     690    5.3089984   0.93368182   -124.89152  0.031836208 
     700    6.3718711    1.1206069     -124.641  0.039194079 
     710    7.6075612     1.337925   -124.34066   0.04899938 
     720    9.0212036    1.5865392   -123.98287  0.057582174 
     730    10.605477    1.8651619   -123.56001  0.067325743 
     740    12.336849    2.1696544   -123.06519  0.082895827 
     750     14.19269    2.4960371   -122.49259   0.10037238 
     760    16.153575    2.8408935    -121.8374   0.11416573 
     770    18.221872    3.2046405   -121.09496   0.12673715 
     780     20.40872    3.5892365   -120.26058   0.14174988 
     790     22.72891    3.9972833   -119.33027   0.15513138 
     800    25.267459    4.4437322   -118.29572   0.16229699 
     810    28.226433    4.9641205   -117.14476   0.16771254 
     820    32.019515    5.6312015   -115.85205   0.17356163 
     830    37.302653    6.5603353   -114.37041   0.17701942 
     840     42.85651    7.5370799   -112.64846    0.2570915 
     850    49.521688    8.7092699   -110.69688    0.2807056 
     860    58.583663     10.30298   -108.42885   0.28303107 
     870    69.063284    12.146007   -105.69616   0.17575917 
     880    74.266616    13.061106   -102.72787   0.15185915 
     890    81.333483     14.30394    -99.53838   0.27509146 
     900    84.826667    14.918279   -96.157783   0.48464292 
     910    94.299769    16.584292   -92.416883   0.50693436 
     920      116.937    20.565452   -88.403284   0.49983973 
     930    148.75223    26.160727   -83.120733   0.63269837 
     940    209.74545    36.887469   -76.549657   0.39895389 
     950     231.7208    40.752225   -68.875364   0.13267359 
     960    297.04114    52.239969   -60.419607   0.11335268 
     970    345.04116    60.681628   -51.656762    0.0106703 
     980    357.20989    62.821715   -43.319433  -0.11816778 
     990    407.85718    71.728943   -36.029239 -0.068917593 
    1000    418.58328    73.615318   -30.604878   0.19764305 
    1010    457.95988    80.540394   -27.361189   0.47116096 
    1020    413.08499    72.648346   -27.138142   0.38093427 
    1030    410.94023    72.271152   -29.194546   0.14593769 
    1040      386.254    67.929639    -33.27741   0.18028344 
    1050    329.06257    57.871507   -38.207308   0.19310971 
    1060    317.65758    55.865737   -42.981226   0.11579592 
    1070    271.87998    47.814931   -47.503119   0.31727509 
    1080    263.14677    46.279043   -51.046841   0.55571575 
    1090    293.39958    51.599536   -54.307843   0.31739592 
    1100    266.14822    46.806901   -57.324945  0.021150376 
    1110    267.01156    46.958733   -59.879352  -0.14215805 
    1120    207.55846    36.502849   -61.575994 -0.051371625 
    1130    226.05241    39.755338   -62.333733    0.1481302 
    1140    245.50717    43.176803   -62.320876  0.089146249 
    1150    249.18307    43.823277   -61.658286   0.17200112 
    1160    235.35676    41.391673   -60.418005   0.28090213 
    1170    230.90499    40.608752   -58.529796    0.2082979 
    1180    258.84992    45.523365   -55.830058   0.02324921 
    1190    281.03244    49.424555   -52.435621 -0.044046131 
    1200     290.1007     51.01937   -48.500261  0.061817787 
    1210     301.3699    53.001258   -44.678412   0.19428802 
    1220    316.71984    55.700818    -40.48313   0.26257508 
    1230    369.48977    64.981351   -36.589988   0.45940824 
    1240    361.61149    63.595814   -33.296119   0.51425308 
    1250    323.54579    56.901283   -31.258199   0.37918707 
    1260    349.51429    61.468307   -29.770464   0.18172928 
    1270    362.56689    63.763838   -28.928834   0.11837127 
    1280    357.56818    62.884727   -29.163678   0.20139016 
    1290    321.71959    56.580114   -30.207096   0.35378137 
    1300    356.25881     62.65445   -31.774215   0.45648474 
    1310    337.28106    59.316876   -34.200278   0.36884791 
    1320    299.55025    52.681242   -36.782718   0.29557013 
    1330    332.90948    58.548055   -39.632789  0.092690126 
    1340    287.01647    50.476953   -42.637485  0.005527587 
    1350    254.07566    44.683726   -45.052367 -0.066143369 
    1360    256.22359    45.061476   -46.807596 -0.024387536 
    1370    280.17213    49.273255    -48.15955    0.1965939 
    1380    270.96043    47.653212   -49.249544   0.24738696 
    1390    251.13139    44.165924   -49.856909   0.37504586 
    1400    298.97856    52.580699   -50.036565    0.3456537 
    1410    281.86745    49.571406   -50.083452   0.28230457 
    1420    266.24026    46.823087   -49.952839  0.062672013 
    1430    277.15779    48.743129   -49.415551  -0.16010306 
    1440    272.75266    47.968409   -48.492988  0.086169449 
    1450    245.50989    43.177282   -47.295941   0.22404062 
    1460    282.35782    49.657647   -45.524444  0.065654206 
    1470    306.42289    53.889918   -43.229314   0.18095848 
    1480    325.81396    57.300183   -40.858796   0.30523263 
    1490    362.16746    63.693591   -38.862091   0.61327271 
    1500    338.37197    59.508731   -37.604126   0.46924721 
    1510    392.19555    68.974566   -37.185375   0.13688811 
    1520    347.77229    61.161945   -38.072076   0.34519984 
    1530    323.91815    56.966771   -39.716917   0.23404676 
    1540    314.52541     55.31489   -41.642176    0.1022778 
    1550    314.13906    55.246943   -43.784181   0.13934165 
    1560    304.84268    53.612009   -46.079242   0.18214513 
    1570    270.08509    47.499268   -48.233052   0.08131384 
    1580    266.47296    46.864012   -49.839019 -0.030903891 
    1590     282.6804    49.714377   -51.146632 0.00066649103 
    1600    263.32253    46.309952    -52.14421   0.12858789 
    1610    252.50444    44.407399   -52.657475   0.20216227 
    1620     269.3441    47.368952   -52.627399   0.37048198 
    1630    289.60431    50.932071   -52.212902   0.39435902 
    1640    291.37224    51.242992   -51.558578    0.3804058 
    1650    307.36729    54.056006    -50.69041   0.40347974 
    1660    299.47825    52.668578   -49.938169   0.28789029 
    1670    288.00893    50.651495   -49.171744   0.12372983 
    1680    292.84967    51.502825   -48.305881   0.19268659 
    1690    284.83038    50.092491   -47.275212   0.47540756 
    1700    297.22571    52.272429   -46.086274    0.5668523 
    1710    331.49474    58.299249   -44.795822   0.28801086 
    1720     336.7369    59.221175   -43.845853 -0.028488067 
    1730    338.93019    59.606905    -43.48282   0.19078749 
    1740    324.38865    57.049516   -43.698539   0.36919817 
    1750    323.15181    56.831996   -44.320382   0.35505922 
    1760    317.58098    55.852266   -45.261904   0.08669574 
    1770    320.41355    56.350424   -46.511975  0.025647059 
    1780    288.07449    50.663025   -47.925463   0.10017274 
    1790    294.05642    51.715053   -49.173749   0.12475061 
    1800    290.50157    51.089871   -50.347031  0.084784593 
    1810    289.78087    50.963122    -51.36268 -0.021123257 
    1820    293.90837    51.689016   -52.268767   0.24992136 
    1830    294.10996     51.72447   -53.099971   0.35139278 
    1840    300.03112    52.765811   -53.891349   0.11432458 
    1850    298.13926    52.433094   -54.656345   0.14735469 
    1860    298.90162    52.567168   -55.375008   0.04129279 
    1870    296.79468    52.196626   -56.096355   0.15444314 
    1880     293.5579    51.627381   -56.733952   0.24498799 
    1890    323.64229    56.918254   -57.439684  0.099095319 
    1900     295.6821    52.000959   -58.356471   0.21249038 
    1910    279.30668     49.12105   -59.200787   0.21890177 
    1920    285.10344    50.140514   -59.774946   0.34605321 
    1930    299.48446    52.669671   -60.201506   0.32028128 
    1940     299.6467    52.698204   -60.568107   0.23199261 
    1950    329.68561     57.98108   -61.083011   0.20351939 
    1960    313.56874    55.146643   -61.934373   0.39700348 
    1970    316.60239    55.680164   -63.068082   0.19020401 
    1980    281.94115    49.584368   -64.230817   0.23741762 
    1990    306.11147    53.835149   -65.272239   0.44096979 
    2000    288.48609    50.735411   -66.287658   0.24845492 
    2010    279.92225    49.229308   -67.169342  0.033553917 
    2020    279.26908    49.114437   -67.739773  0.087311859 
    2030     281.7804    49.556096   -68.049308   0.29338739 
    2040    262.33343    46.136002   -68.090831   0.40985265 
    2050    274.44717    48.266419   -67.729127    0.2516618 
    2060    249.58695    43.894305   -66.922489   0.10815251 
    2070    271.08319    47.674803   -65.642495  0.036575598 
    2080    282.31024     49.64928   -63.864356  0.083978241 
    2090    300.94456    52.926456   -61.750532   0.26507749 
    2100     322.2127    56.666837   -59.536019    0.2376056 
    2110    318.77798    56.062779   -57.528043   0.24420249 
    2120    304.76222     53.59786   -55.872995   0.25697303 
    2130    325.12537    57.179081   -54.336804   0.22022241 
    2140    331.24764    58.255791   -53.076616   0.18142894 
    2150    328.38894    57.753037   -52.284059   0.21499968 
    2160    364.23234    64.056737    -52.04015   0.29847007 
    2170    337.98513    59.440699   -52.649167   0.35835188 
    2180    343.40885    60.394557   -54.011269   0.34399739 
    2190    308.93995    54.332587   -55.826399   0.24208688 
    2200    301.90738    53.095785   -57.691394   0.21038444 
    2210    297.17945    52.264293   -59.602065    0.2321686 
    2220     293.6059    51.635822   -61.434334   0.21585924 
    2230    283.29839    49.823062   -63.106858   0.15226433 
    2240    275.55129    48.460598   -64.481436   0.07303992 
    2250     289.0578    50.835957   -65.602781   0.15196214 
    2260    273.55757    48.109967   -66.513413   0.22609613 
    2270    278.26919    48.938587   -67.163412   0.36123963 
    2280    267.09102    46.972708   -67.446744    0.1626902 
    2290     259.4428    45.627633   -67.338417 -0.027600765 
    2300    244.84173    43.059775   -66.774292   0.27424044 
    2310    251.11977     44.16388   -65.580596   0.34401597 
    2320    266.82602    46.926103   -63.744691   0.21026241 
    2330    276.07446    48.552606   -61.429524   0.16252884 
    2340    305.33774    53.699075   -58.702358    0.1367299 
    2350    320.83631    56.424774   -55.843634  0.061401602 
    2360    330.54162    58.131624   -53.274557   0.13525949 
    2370     344.8995    60.656713   -51.103529   0.45796181 
    2380    347.43709    61.102993   -49.613398   0.57675676 
    2390     362.4426    63.741981   -48.910709    0.4141408 
    2400    360.91202      63.4728   -49.208098   0.11335734 
    2410    326.46024    57.413842   -50.416942  -0.09656227 
    2420    329.32019    57.916816   -52.051777 -0.069706763 
    2430    334.23309    58.780835   -54.187769   0.29260015 
    2440    338.50231    59.531654   -56.833597   0.52286148 
    2450    331.68813    58.333259   -60.115533   0.34765005 
    2460    288.99991    50.825777   -63.342565   0.18896113 
    2470     285.2296      50.1627   -66.178418   0.34921616 
    2480    264.87846     46.58359   -68.634103   0.27908995 
    2490    246.16599     43.29267   -70.457815   0.25990323 
    2500    248.21572    43.653152   -71.542127    0.1630605 
    2510    271.06131    47.670955   -72.151099   0.14246117 
    2520    267.80837    47.098867    -72.34475   0.09561685 
    2530    272.31346    47.891168   -72.165135   0.15777293 
    2540    262.49988    46.165275   -71.633773   0.36221492 
    2550    276.87902    48.694102    -70.62903   0.17212297 
    2560    274.76575    48.322447   -69.271096  0.088768897 
    2570    278.22071    48.930063   -67.635295   0.12421439 
    2580    297.13371     52.25625   -65.612749   0.14217841 
    2590    288.93453    50.814278   -63.514525   0.15212908 
    2600    319.35827    56.164834   -61.277889   0.18430547 
    2610    304.49854    53.551486   -59.185217   0.24317629 
    2620    327.14375    57.534049   -57.248351     0.299081 
    2630    333.49274    58.650632     -55.5763   0.44850213 
    2640    332.51715    58.479058   -54.455391   0.59407761 
    2650    328.66883    57.802262   -53.763845   0.60442304 
    2660     332.9972    58.563483   -53.536189   0.34281356 
    2670    330.10942    58.055614   -53.823144  0.054036334 
    2680     334.3678    58.804528   -54.611031  0.023741211 
    2690    312.35742    54.933611   -55.858156   0.11171955 
    2700     292.3938    51.422652   -57.204174  0.067489762 
    2710    288.95907    50.818594   -58.401189  0.061111317 
    2720    285.98672    50.295853   -59.489613   0.27690933 
    2730    287.94761     50.64071   -60.387877    0.3661089 
    2740    281.13634    49.442827   -61.095885   0.30737406 
    2750    274.88196    48.342884   -61.562699    0.1266585 
    2760    271.29369    47.711823   -61.701484  0.080573524 
    2770    273.77339    48.147922   -61.478669   0.28879287 
    2780    269.76134    47.442331   -60.890496   0.22903264 
    2790    291.30384    51.230964   -59.940078   0.25878559 
    2800    311.02348    54.699014   -58.769914    0.2817419 
    2810    311.32928    54.752793   -57.641953   0.32657714 
    2820    321.97162    56.624439   -56.689705   0.14404127 
    2830    293.29185     51.58059   -56.061086    0.2726802 
    2840    291.56195    51.276356   -55.393645   0.38866285 
    2850    325.45821    57.237617    -54.54945   0.30621444 
    2860    324.60044    57.086762   -53.991478 -0.023051022 
    2870    335.03469    58.921812   -53.852029   0.10372758 
    2880    319.06113    56.112576   -54.140423   0.22406086 
    2890    341.93629    60.135581   -54.872692   0.16617834 
    2900    330.57496    58.137489   -56.211352   0.33396334 
    2910    299.40074    52.654947   -57.919084   0.33061119 
    2920    289.21989    50.864464    -59.52652   0.37586702 
    2930    304.74202    53.594307   -61.045018   0.24321651 
    2940    286.66958    50.415946   -62.570424   0.23463633 
    2950     299.6003    52.690044   -63.980467   0.18293238 
    2960    289.47044    50.908528    -65.35008 -0.0040312124 
    2970    269.14962     47.33475   -66.513133   0.23546346 
    2980    249.39782    43.861044   -67.175309    0.4535187 
    2990    291.34242    51.237749   -67.373851   0.34738562 
    3000    264.71811    46.555391    -67.35189  0.067976105 
    3010    264.20259    46.464727   -66.961541  0.078492415 
    3020    274.47629    48.271539   -66.065281   0.33402702 
    3030    283.61332    49.878448   -64.819825   0.30157979 
    3040    301.29005    52.987216   -63.259802    0.2390557 
    3050      323.945    56.971491   -61.607468   0.18868181 
    3060     320.8857     56.43346   -60.182369   0.32307457 
    3070    311.76258    54.828997   -59.106524   0.29961169 
    3080    315.21403    55.435996   -58.224377   0.10801182 
    3090    298.19067    52.442135   -57.521768  0.010640621 
    3100    299.19547    52.618847   -56.828064 -0.011186127 
    3110    304.49248    53.550421   -56.056292  0.041503937 
    3120    314.46403    55.304095   -55.355425   0.27036906 
    3130    323.66449     56.92216   -54.808007   0.35446759 
    3140    312.64618    54.984394   -54.531551   0.31747949 
    3150    303.36523    53.352173   -54.476688   0.32369605 
    3160    304.54711    53.560028   -54.488622   0.29107013 
    3170    292.27421     51.40162   -54.513962   0.21592209 
    3180    289.12452    50.847692   -54.449766   0.13280284 
    3190    292.14974     51.37973   -54.239163   0.19914937 
    3200    306.94495     53.98173   -53.916142   0.43629072 
    3210    313.19142    55.080284   -53.600457   0.40578066 
    3220    300.93447    52.924681   -53.418154    0.1999478 
    3230    298.87804    52.563021   -53.269603   0.15095845 
    3240     306.7542    53.948184   -53.104761   0.23638493 
    3250    292.65318    51.468268   -52.945006   0.28086646 
    3260    313.91615    55.207741   -52.734061   0.17806473 
    3270    301.00682    52.937406   -52.607029   0.20345539 
    3280    299.99513    52.759482   -52.526173   0.17950773 
    3290    290.23748    51.043425   -52.400677   0.22617842 
    3300    307.10045    54.009078   -52.155575   0.22528434 
    3310    311.45794    54.775421   -51.917798   0.33505457 
    3320    304.48173     53.54853   -51.788756   0.41199638 
    3330    310.73595    54.648446   -51.728174   0.46332656 
    3340     326.4602    57.413835   -51.851007   0.35696845 
    3350    310.57087    54.619414    -52.37947   0.20399081 
    3360    295.69183    52.002669   -53.184271   0.17051441 
    3370    295.40204    51.951705   -54.103411   0.22291762 
    3380    297.25907    52.278296   -55.189798   0.21208422 
    3390    283.33172    49.828924   -56.370926   0.14047187 
    3400    278.54203    48.986572    -57.51712   0.15856101 
    3410    278.22424    48.930683   -58.538785   0.33697753 
    3420    277.08474    48.730281   -59.417762   0.51147975 
    3430    276.81284    48.682463   -60.104358   0.37272225 
    3440    281.63137    49.529887   -60.640317    0.1888101 
    3450    252.95153    44.486028   -60.928816  0.036067328 
    3460    257.42167    45.272181   -60.701903 -0.017151833 
    3470    281.83978     49.56654   -59.836411   0.14703414 
    3480    291.98548    51.350842   -58.379074   0.19015655 
    3490    297.91971    52.394481   -56.439399   0.17617019 
    3500    317.27433    55.798335   -54.082095   0.24048736 
    3510    327.48765     57.59453   -51.588564   0.35386902 
    3520    312.58906    54.974347   -49.383719   0.48802727 
    3530    329.49548    57.947643    -47.38561   0.50869755 
    3540    356.00569    62.609934   -45.696135   0.30394682 
    3550    354.37058    62.322371   -44.828204   0.20622484 
    3560     345.4394    60.751665    -44.84103   0.18872983 
    3570    346.02638    60.854897   -45.676716    0.3028749 
    3580    327.56122     57.60747   -47.321647    0.2800617 
    3590    327.80794     57.65086   -49.723187   0.28232729 
    3600    309.26939    54.390525   -52.876163   0.28729262 
    3610    301.87926     53.09084   -56.307203   0.27253564 
    3620    283.56941    49.870726   -59.446855   0.31560104 
    3630    267.36104    47.020195   -61.686425   0.29365743 
    3640    256.87592    45.176202   -62.866177   0.24106602 
    3650    247.79365    43.578922   -63.217536   0.11358253 
    3660    262.18283    46.109515   -62.961586  0.062344452 
    3670    276.01839    48.542745   -62.354719    0.2547532 
    3680    266.43802    46.857867   -61.600223    0.5345157 
    3690    277.23029     48.75588    -60.64687   0.40406791 
    3700    285.81893    50.266344    -59.52618   0.11548765 
    3710    300.13363     52.78384   -58.329358  0.077696792 
    3720    281.71806    49.545134   -57.166158   0.15434198 
    3730    307.91869     54.15298   -55.920763   0.19143957 
    3740    289.23175    50.866549   -54.755553   0.24068179 
    3750     292.7977    51.493685   -53.564213   0.26580109 
    3760    292.53811    51.448031   -52.264055   0.20095116 
    3770    306.42492    53.890274    -50.87915   0.06811928 
    3780    307.73014    54.119821   -49.504665   0.21559118 
    3790    325.75991    57.290677   -48.231632   0.43948667 
    3800    347.63606    61.137987   -47.220205   0.63099441 
    3810    342.97999    60.319133   -46.889659   0.35190202 
    3820    309.43246    54.419203   -47.184965   0.25198303 
    3830    330.81886    58.180383   -47.868068    0.1581671 
    3840    314.69224    55.344229     -49.2734   0.11610908 
    3850    297.61548    52.340978    -51.53443   0.16553071 
    3860    284.34091    50.006408   -54.733112   0.35462672 
    3870    254.42263    44.744746   -58.251786   0.24834818 
    3880    242.38667    42.628009   -61.085922   0.24819266 
    3890    242.48035    42.644484   -63.005868   0.34236628 
    3900    252.47192    44.401679   -64.074499   0.29763467 
    3910    229.98866    40.447598   -64.443543  0.075213096 
    3920    225.46693    39.652371   -64.072979  0.080531559 
    3930     241.1207    42.405365   -62.930249   0.22991443 
    3940    250.07208    43.979625   -61.192217   0.32841138 
    3950    262.54468    46.173154   -59.047242   0.22418493 
    3960    282.02487    49.599092   -56.815693   0.25530468 
    3970    281.74203    49.549348   -54.797481   0.37563232 
    3980    295.40826    51.952798   -53.189729   0.26136121 
    3990    311.79984    54.835549   -51.980644   0.24537705 
    4000    295.53066    51.974325   -51.145794   0.16659097 
    4010    308.23962    54.209421   -50.490394   0.15888785 
    4020    307.55985    54.089872   -50.016195   0.15880182 
    4030    310.37439    54.584859   -49.706631   0.15653804 
    4040    318.79316    56.065449   -49.569767   0.29610168 
    4050    303.53431    53.381909   -49.690738     0.512291 
    4060    301.57432    53.037209   -49.830912   0.46935216 
    4070    332.82131    58.532549    -50.11288   0.35811315 
    4080    305.49176    53.726161   -50.761504   0.14740676 
    4090     318.4771    56.009864   -51.741206    0.2581109 
    4100    305.41426    53.712531   -53.066854   0.37279554 
    4110    280.95386    49.410735    -54.65878   0.30168046 
    4120    271.19081     47.69373   -56.277281   0.22092716 
    4130    265.89942    46.763145   -57.895879   0.24998832 
    4140    255.17088     44.87634   -59.362732   0.24840481 
    4150    255.21149    44.883482   -60.671213  0.018687229 
    4160    250.99248    44.141493   -61.695935  0.055316675 
    4170    246.50146    43.351667   -62.363267   0.26323894 
    4180    243.42964    42.811433   -62.517089   0.28850792 
    4190    258.77365     45.50995   -61.968977   0.14144112 
    4200    259.28529    45.599932   -60.586242   0.13055405 
    4210     274.0154    48.190484   -58.272908   0.29836262 
    4220    308.72856     54.29541    -54.91593   0.35518461 
    4230    300.48182    52.845075    -51.54577   0.27462394 
    4240    334.14842    58.765944    -48.60021   0.53124021 
    4250    348.17801    61.233299   -46.376496   0.63533462 
    4260    372.37163    65.488176    -45.29683   0.45347769 
    4270    345.47574    60.758056   -45.366327   0.13153974 
    4280    330.29113    58.087572   -46.130763   0.11246126 
    4290    339.96426    59.788765   -47.353678    0.3776438 
    4300    326.56089    57.431543    -49.10937   0.15777859 
    4310    312.21793    54.909079   -51.089069  0.013189243 
    4320     304.6016    53.569612    -53.10627   0.21403463 
    4330    271.47513    47.743732   -54.838032   0.23775043 
    4340    266.66049    46.896992   -55.966339   0.24995528 
    4350     284.1775    49.977669   -56.638066   0.31627916 
    4360    292.42036    51.427323   -57.055608   0.22300998 
    4370    295.00451    51.881793   -57.389411   0.27427991 
    4380    271.02436    47.664457   -57.562064   0.23475355 
    4390    279.79411    49.206773   -57.424946   0.29043547 
    4400    294.48949    51.791217   -56.995025   0.35023184 
    4410    291.90172    51.336111   -56.420036   0.40684607 
    4420    277.13773    48.739601   -55.647943   0.27126692 
    4430    283.21709    49.808765   -54.376158  0.055979445 
    4440    293.15132    51.555875    -52.16726   0.10216782 
    4450    331.76509    58.346794   -48.488804   0.19880935 
    4460    361.63515    63.599975   -43.293876   0.29916965 
    4470    359.30253    63.189742   -38.503336   0.42825631 
    4480    392.05142    68.949218     -35.2185   0.51661652 
    4490    385.82154    67.853583   -33.818565   0.43409827 
    4500    392.74944    69.071977   -34.187734   0.27431558 
    4510    389.21465    68.450321   -36.004229    0.4105975 
    4520    366.21355    64.405168   -38.710989   0.42417367 
    4530    347.13064      61.0491   -41.596144   0.29303171 
    4540    344.42029    60.572436   -44.240756   0.16102805 
    4550    323.68525     56.92581    -46.61041   0.17740672 
    4560    311.50377    54.783481   -48.474158   0.31527524 
    4570    306.30896    53.869881   -50.000595   0.29485036 
    4580    311.17924    54.726407    -51.34871  0.062428232 
    4590    289.53314    50.919555   -52.537947 -0.059354228 
    4600    302.27047     53.15964   -53.545473  0.077505478 
    4610    303.47908    53.372197   -54.499471    0.4217574 
    4620    294.52032    51.796639    -55.50621   0.69063338 
    4630    299.61468    52.692573   -56.448276   0.60245353 
    4640    278.22992    48.931682   -57.286209   0.28422428 
    4650    259.36883    45.614624   -57.853086  0.085278593 
    4660    256.59594    45.126961   -57.947671   0.14178759 
    4670    277.87447     48.86917   -57.524251     0.282538 
    4680    293.69156    51.650886   -56.634306   0.28584865 
    4690    305.74296    53.770339   -55.399838   0.37770091 
    4700    307.03327    53.997264   -53.946775   0.25041972 
    4710    300.05796    52.770532   -52.193131   0.16630542 
    4720    308.93482    54.331685   -50.029791 -0.028085194 
    4730    330.49054    58.122642   -47.391097   0.36159023 
    4740    347.43842    61.103227   -44.747883   0.43730566 
    4750    368.47268    64.802478   -42.425567   0.41305847 
    4760    367.07621    64.556884   -41.020142   0.29848245 
    4770    352.94007    62.070791   -40.683079   0.27376433 
    4780    342.73466    60.275988   -41.245677  0.067585163 
    4790    335.94242    59.081452   -42.706236 -0.011305814 
    4800    338.65271    59.558105   -45.282726   0.19687881 
    4810    325.84352     57.30538   -49.162635   0.52219946 
    4820     290.6193    51.110575   -53.448282   0.45377743 
    4830    274.15581    48.215178    -56.83196   0.30808457 
    4840    265.46716    46.687123   -58.894658   0.16540767 
    4850    272.38475    47.903705   -59.972386   0.24526463 
    4860    267.52977     47.04987   -60.405502   0.29997054 
    4870    288.16498    50.678939   -60.434094   0.26093131 
    4880     274.5627    48.286735   -60.224662   0.28426319 
    4890    290.30174    51.054726   -59.800555   0.27207212 
    4900    262.51671    46.168235   -59.202819   0.14372523 
    4910    264.99581    46.604228   -58.294224  0.091260156 
    4920     280.4506    49.322227     -56.8709    0.2016382 
    4930    280.34411      49.3035   -55.145523   0.23634681 
    4940    300.96585      52.9302   -53.203879   0.27414412 
    4950    320.85078    56.427318   -51.194834   0.16415764 
    4960    313.06086    55.057323   -49.540679   0.22597478 
    4970    327.34512    57.569464   -48.286859   0.30505416 
    4980    321.49394     56.54043   -47.430646    0.4295867 
    4990    335.88956    59.072155   -46.986083   0.55208853 
    5000    350.21675    61.591847    -47.08147   0.59855978 
    5010    329.90701    58.020018   -47.927924   0.14124567 
    5020    297.22234    52.271837   -49.157228  -0.12436139 
    5030    314.28452    55.272525   -50.537006  0.093475196 
    5040    324.53668     57.07555   -52.448336   0.15713317 
    5050    292.22506    51.392976   -54.904365   0.39122495 
    5060    277.01762    48.718477    -57.61729    0.3660182 
    5070     259.4561    45.629972   -60.397711   0.13483417 
    5080    237.68425    41.801005   -62.851123   0.18768724 
    5090     236.9792    41.677008   -64.779077   0.38221631 
    5100    230.70601    40.573758   -66.061979   0.37982195 
    5110    239.08155    42.046745   -66.789895   0.30454352 
    5120    237.87686    41.834878   -66.916134   0.15661258 
    5130    230.05031     40.45844   -66.174942  -0.10590317 
    5140    265.76942    46.740281   -63.740217  0.074229807 
    5150    258.51123    45.463799   -58.883086   0.28386605 
    5160     295.4367      51.9578   -53.471555   0.34851998 
    5170    324.71277    57.106519   -49.259868   0.22353642 
    5180    324.06429    56.992471   -46.819689   0.14017026 
    5190    335.09098    58.931711   -45.366109   0.27870023 
    5200    345.15668    60.701944   -44.635978     0.408266 
    5210    353.93266    62.245356   -44.699532    0.5323351 
    5220    341.32996    60.028947   -45.576778   0.58884844 
    5230    331.99269    58.386822   -47.116789   0.31258243 
    5240    319.87542    56.255783   -49.145821   0.01314297 
    5250    288.21823    50.688304   -51.205098  0.029296279 
    5260    293.31778     51.58515   -53.094183   0.30775156 
    5270    287.82858    50.619777   -54.806431   0.37085657 
    5280    292.58712    51.456651   -56.344737   0.14209349 
    5290    273.86771     48.16451   -57.694193   0.22330089 
    5300    265.03105    46.610426   -58.612683   0.31315251 
    5310    281.05844    49.429128   -59.166619   0.42104637 
    5320    286.21043    50.335196   -59.504628   0.35867455 
    5330    267.13474    46.980397   -59.585426   0.20224663 
    5340    280.57852    49.344724   -59.301861   0.12839317 
    5350    279.61155    49.174666   -58.668853   0.12699387 
    5360    270.66438    47.601147    -57.65121  0.073315527 
    5370    291.30972    51.231997   -56.075943  0.050025654 
    5380    302.95984    53.280878   -53.933159   0.11302832 
    5390    313.19952    55.081708   -51.498584   0.32184521 
    5400    327.15696    57.536372   -49.010463    0.5012052 
    5410    327.15127    57.535372   -46.756394    0.4777613 
    5420     329.7469    57.991859   -44.962711   0.30673793 
    5430    347.70273    61.149712   -43.583138   0.15378935 
    5440    351.62514    61.839538   -42.919948    0.3288868 
    5450    342.46735    60.228977   -43.088985   0.48767467 
    5460    356.21215    62.646245   -44.155603   0.60336977 
    5470    343.77908    60.459669    -46.24395   0.37928846 
    5480    316.99122    55.748547   -49.422807   0.21128015 
    5490    296.39491    52.126318   -53.114782 -0.065196212 
    5500    276.11803    48.560269   -56.686803 -0.062415131 
    5510    285.05599    50.132167   -59.316255   0.14054717 
    5520    256.36818    45.086907   -60.989804   0.25872325 
    5530    237.18248     41.71276    -61.53995   0.26865694 
    5540    249.92566    43.953874   -61.342703   0.27058442 
    5550    269.07774    47.322109   -60.720258   0.27250518 
    5560    262.80758    46.219388   -59.821557   0.33977824 
    5570    273.80572    48.153608   -58.691731   0.28626356 
    5580    287.66032    50.590186   -57.396268   0.18650218 
    5590    285.57714    50.223822     -55.9915   0.15163055 
    5600    282.04596      49.6028   -54.555399   0.25764252 
    5610    307.56998    54.091654   -52.954613   0.32222193 
    5620    316.99509    55.749226     -51.4377   0.32298741 
    5630    309.07764    54.356803   -50.198143   0.29183307 
    5640    324.55425    57.078639   -49.159644   0.36177078 
    5650    331.47826    58.296351   -48.448362   0.32719634 
    5660    317.61645    55.858504   -48.172642   0.19769086 
    5670    323.71431    56.930921   -48.197375   0.27979043 
    5680    307.06554    54.002939   -48.562601   0.18621661 
    5690    303.97103    53.458715    -49.11962   0.10767897 
    5700    313.00099    55.046794    -49.93842   0.32515037 
    5710    299.80928    52.726796   -51.178238   0.28466972 
    5720     291.0404    51.184633   -52.867285   0.30285684 
    5730    277.72209    48.842372   -54.895374    0.2842281 
    5740    278.07509    48.904453   -57.218693   0.30951198 
    5750    258.26248    45.420052   -59.578257   0.18041903 
    5760    248.94415    43.781258   -61.546666   0.04457702 
    5770    233.93394    41.141445   -62.904135  0.042775715 
    5780    245.20568    43.123781   -63.609059   0.08128031 
    5790    259.58336    45.652352   -63.724857   0.17549275 
    5800    259.63922    45.662176   -63.309657   0.43188561 
    5810    248.57563    43.716447   -62.284369   0.56668094 
    5820    266.22729    46.820807   -60.350827   0.31424943 
    5830    293.05856    51.539562    -57.47156   0.15480865 
    5840    293.59914    51.634632   -54.090588   0.17826305 
    5850     309.9129    54.503697   -50.787545   0.30325398 
    5860    320.55383    56.375095    -48.22636   0.29068251 
    5870    327.79508    57.648597   -46.563915   0.20355855 
    5880    315.39004    55.466951    -45.74986   0.21189338 
    5890    327.49653    57.596092    -45.42602   0.18300223 
    5900    311.69618    54.817319   -45.484679   0.26262047 
    5910    311.02428    54.699154     -45.7181   0.23527953 
    5920    321.56714    56.553302   -46.096822   0.26348497 
    5930    321.54968    56.550233   -46.773744   0.31095415 
    5940      293.981     51.70179   -47.609927   0.22712336 
    5950    306.07134    53.828092   -48.409004   0.25037498 
    5960    312.68368    54.990989   -49.319669   0.25993313 
    5970    309.25697     54.38834   -50.458364   0.27782314 
    5980    300.85361    52.910461   -51.753792   0.34842108 
    5990    305.37182    53.705067   -53.233869   0.40526699 
    6000    291.40814    51.249307   -54.890488   0.34138985 
    6010     265.8505    46.754541   -56.478447   0.21193717 
    6020    264.65707    46.544656   -57.814493   0.09733004 
    6030    252.33539    44.377668   -58.871312  0.049176177 
    6040    260.24045    45.767913    -59.61974   0.23927391 
    6050    266.92325    46.943203   -60.086061   0.28822935 
    6060    247.38157     43.50645    -60.21033   0.25635674 
    6070    259.00477    45.550597   -59.705994   0.29775153 
    6080     279.0477    49.075503   -58.226535   0.34764951 
    6090    291.15478    51.204748   -55.760392   0.24307254 
    6100    318.85625    56.076545   -52.613084   0.22789244 
    6110    313.59417    55.151115   -49.464117   0.36008868 
    6120    334.50587    58.828809   -46.755242   0.35071324 
    6130    336.02236     59.09551   -44.684392   0.12098112 
    6140    319.31724    56.157618    -43.35062   0.22120287 
    6150    329.18847     57.89365   -42.470217   0.17457902 
    6160    330.32985    58.094381   -42.012827   0.26292205 
    6170    335.89497    59.073107   -42.045285   0.39081172 
    6180    333.70848    58.688574   -42.621134   0.25887669 
    6190    326.30299    57.386186   -43.779765    0.3431454 
    6200     317.0449    55.757986   -45.435087    0.2849239 
    6210    298.65672    52.524099   -47.438622   0.34478871 
    6220     297.3051    52.286391   -49.536001   0.32341921 
    6230    295.69003    52.002353    -51.72828   0.23966082 
    6240    289.77334    50.961797   -53.896859   0.22783727 
    6250    264.10188    46.447015   -55.756112   0.28971965 
    6260     261.4022    45.972228   -57.026261   0.24509991 
    6270    261.25378    45.946126   -57.780228   0.24054525 
    6280    257.52217    45.289856   -58.070106   0.21231908 
    6290     243.3553    42.798359   -57.809099   0.14756862 
    6300    262.40497    46.148584   -56.892877   0.11834178 
    6310    273.95112    48.179179   -55.298024   0.22861545 
    6320    283.62544     49.88058   -53.050584   0.38051781 
    6330     316.9457    55.740541   -50.069133   0.43447821 
    6340    308.19374    54.201354   -46.821671   0.30506466 
    6350    314.74516    55.353537   -43.800243   0.27687383 
    6360    325.66673     57.27429   -41.194506   0.33561937 
    6370    346.24959    60.894151   -39.537381   0.44028571 
    6380    336.02152    59.095363   -38.969101   0.33155036 
    6390    359.48264    63.221418   -39.156255   0.25222391 
    6400    346.49905    60.938023   -40.018032   0.16988118 
    6410    330.04507    58.044298   -41.181449   0.26820513 
    6420      331.867    58.364717   -42.440835   0.21381653 
    6430    334.22447    58.779319   -44.020283   0.24168072 
    6440    307.00938    53.993063    -45.81463   0.22445494 
    6450     305.7018    53.763102   -47.565006   0.23668508 
    6460    298.70452    52.532505    -49.26331   0.39822675 
    6470    289.31497    50.881186   -50.801166   0.36640323 
    6480    288.02451    50.654235   -52.173814    0.2813031 
    6490    271.91348    47.820823    -53.23877   0.22178962 
    6500    282.33934    49.654396   -54.028127   0.23011269 
    6510    277.38769    48.783561   -54.557264   0.26730327 
    6520    269.68289    47.428535   -54.826114   0.31141189 
    6530    254.20778    44.706961   -54.709663   0.23719034 
    6540    268.44725    47.211226   -54.017364   0.18726906 
    6550    277.07311    48.728236   -52.699306  0.089884954 
    6560    282.34949    49.656181   -50.809127   0.11173264 
    6570    315.86865    55.551122   -48.301112   0.39779766 
    6580    332.21103    58.425221   -45.578663   0.48977826 
    6590    345.30689    60.728361   -43.183509   0.49604601 
    6600    337.59857    59.372715    -41.47547   0.34318725 
    6610    331.11757    58.232917    -40.42374   0.20173447 
    6620    349.29265    61.429327   -39.901919    0.1089365 
    6630    357.99866    62.960435   -40.153417   0.27950619 
    6640    343.52469    60.414929   -41.417741    0.3260961 
    6650    330.24914    58.080187   -43.612403   0.18320163 
    6660    325.08146    57.171359   -46.788348   0.10552584 
    6670    306.65447    53.930644   -50.849521   0.18079898 
    6680    264.65749    46.544728   -54.520436   0.26140496 
    6690    264.23013    46.469569   -56.961857   0.46685579 
    6700      268.653    47.247411   -58.261468   0.51474497 
    6710    270.64389    47.597544   -58.769825    0.4697485 
    6720    270.09372    47.500786   -58.779646   0.21584819 
    6730    269.53376    47.402307   -58.453298 0.0020553748 
    6740     270.7935    47.623855   -57.862036  0.094300851 
    6750    270.61024    47.591625   -57.005919   0.16882097 
    6760    291.21858    51.215969    -55.87858   0.26332172 
    6770    281.78637    49.557147     -54.6182   0.25006392 
    6780    291.92209    51.339694   -53.220864   0.20429904 
    6790    298.25351    52.453186   -51.686774   0.21876197 
    6800    297.83296    52.379226   -50.138604   0.27663323 
    6810    308.01003    54.169044   -48.596528   0.33211717 
    6820    307.25799    54.036785   -47.148324   0.32680061 
    6830    313.88854    55.202885    -45.81238   0.28677287 
    6840    338.15845    59.471179   -44.658169   0.38206354 
    6850    340.89992    59.953317    -43.98626   0.35962906 
    6860    338.87147    59.596577   -43.960015   0.31838872 
    6870    317.70334    55.873785   -44.532835   0.17888582 
    6880    314.26801    55.269621     -45.5172  0.024674701 
    6890    313.55993    55.145093   -47.049686  0.029993817 
    6900    303.36628    53.352358   -49.239124   0.20718758 
    6910    299.50352    52.673022   -52.222965    0.3004082 
    6920      280.289    49.293807    -55.69735   0.40170802 
    6930    246.28904     43.31431   -58.820912   0.34448699 
    6940    219.08408    38.529834   -60.736363   0.32686792 
    6950    229.37589    40.339832   -61.567087   0.26406353 
    6960    239.39177    42.101303   -61.578857   0.23715816 
    6970    244.26224    42.957862   -60.948531   0.24370038 
    6980    258.74973    45.505744   -59.814116   0.25254951 
    6990    257.76998    45.333437   -58.365227   0.28408162 
    7000    269.66116    47.424713   -56.767695   0.14336114 
    7010     269.8474    47.457467   -55.146208   0.10889631 
    7020    266.84386     46.92924   -53.658223   0.16109538 
    7030    296.66966    52.174639   -52.217023   0.22639375 
    7040    290.53989    51.096609   -51.044048   0.22302503 
    7050    324.54393    57.076825   -50.137623   0.17452423 
    7060    324.87433    57.134931   -49.599727   0.17868531 
    7070      300.986    52.933744   -49.470615   0.39695257 
    7080    305.70625    53.763883   -49.422335   0.29293763 
    7090    297.26992    52.280204   -49.412652   0.27488401 
    7100    301.24576    52.979427   -49.398436   0.21240521 
    7110    300.28751    52.810902   -49.394347   0.18753769 
    7120    288.23285    50.690874   -49.379703   0.32786755 
    7130     289.4354    50.902364   -49.187263   0.38444863 
    7140    314.33379     55.28119   -48.881667    0.3288185 
    7150    296.90705    52.216387   -48.603435     0.185212 
    7160    319.70168    56.225229   -48.286473   0.40605524 
    7170    327.97033    57.679419   -48.110746   0.49206429 
    7180    330.95877    58.204989   -48.401899   0.27266887 
    7190    292.97235    51.524401   -49.221321   0.17667793 
    7200    279.33359    49.125781    -50.20733  0.072062392 
    7210    282.54602    49.690746   -51.213609   0.18280453 
    7220    285.27921    50.171424   -52.212218   0.24512203 
    7230    278.34366    48.951686   -53.181581  0.087085198 
    7240     280.4198    49.316812    -54.03108   0.21661546 
    7250    289.12981    50.848621   -54.764773    0.2326722 
    7260    279.04761    49.075488   -55.417718   0.20987016 
    7270    267.26736     47.00372   -55.851152   0.31942932 
    7280     264.0626    46.440107   -55.912462   0.39461272 
    7290    282.51364     49.68505   -55.529135   0.35606918 
    7300    284.69769    50.069154   -54.759531   0.28969139 
    7310    279.14274    49.092218   -53.652448   0.28934438 
    7320    274.47593    48.271476   -52.089849   0.25240447 
    7330    291.38651    51.245502   -49.954375   0.18556578 
    7340     318.9675    56.096111   -47.335186   0.19208974 
    7350    330.48352    58.121407   -44.807479   0.34619841 
    7360    339.36664    59.683662   -42.722488   0.46175234 
    7370    339.29378    59.670848   -41.364802    0.4837805 
    7380    337.64371    59.380654   -40.621021   0.33761289 
    7390    339.13413     59.64277   -40.494356   0.24262672 
    7400     337.7506    59.399453   -41.023889   0.12029998 
    7410    345.55608    60.772185   -42.286869  0.076688044 
    7420    317.13961    55.774643   -44.396384   0.14473355 
    7430    288.71303    50.775323   -46.707303   0.27659269 
    7440    310.84851    54.668242   -49.314431   0.38571655 
    7450    263.34594     46.31407    -51.91547   0.36199057 
    7460    277.47383    48.798711   -54.003441   0.38187429 
    7470    265.37043    46.670112   -55.681249   0.17768544 
    7480    252.07607    44.332062   -56.665549   0.13258991 
    7490    266.87188    46.934169   -57.050321   0.17654192 
    7500    233.63156    41.088267   -56.912469   0.10670066 
    7510    260.14949    45.751916   -56.235569   0.30851094 
    7520    272.52732    47.928779   -55.230679   0.47592775 
    7530    275.81413    48.506823   -54.283041   0.31499439 
    7540    272.41119    47.908354   -53.444797   0.14605736 
    7550    272.43955    47.913343    -52.64168   0.14364741 
    7560     285.6437    50.235527   -51.790169   0.16870229 
    7570    282.60018     49.70027   -50.918987   0.26113851 
    7580    286.13603    50.322112   -49.991274   0.28656924 
    7590    289.56854     50.92578   -48.960661   0.30891491 
    7600    311.74005    54.825035    -47.84089   0.21007134 
    7610    299.04357    52.592132    -46.83479    0.2257502 
    7620    314.67386    55.340997   -45.898933   0.26819848 
    7630    319.10326    56.119986   -45.067408   0.30649196 
    7640    311.52287    54.786839   -44.466057   0.31652782 
    7650      337.604     59.37367   -44.092541   0.29477299 
    7660    317.59071    55.853978     -44.1524   0.32726021 
    7670    316.88585    55.730015   -44.551402   0.26919104 
    7680    317.66524    55.867084    -45.30128   0.23413234 
    7690    305.98446    53.812812   -46.519817   0.29512674 
    7700    276.14023    48.564174    -47.99196   0.30653883 
    7710    274.39794    48.257759   -49.494366   0.44561973 
    7720    283.26289     49.81682   -51.019437   0.42935494 
    7730    281.23692    49.460517   -52.709178   0.33538049 
    7740    270.79793    47.624634   -54.395982   0.21454868 
    7750     267.6482    47.070698   -55.957236   0.16254752 
    7760     260.4271    45.800739   -57.319574   0.15417359 
    7770     254.7248    44.797888   -58.344733   0.15314407 
    7780    244.26464    42.958283   -58.945494   0.17653724 
    7790    244.42021    42.985643   -58.977822   0.18076814 
    7800    242.85067    42.709611   -58.274675   0.25233314 
    7810    264.39814    46.499117   -56.619617   0.21171396 
    7820    263.54245    46.348629   -53.866864   0.29979567 
    7830    287.26137    50.520023   -50.360983   0.29161771 
    7840    303.08602     53.30307   -46.681953   0.23718652 
    7850    335.03744    58.922296   -43.708122   0.38355453 
    7860    329.53759    57.955049   -41.892477   0.37495651 
    7870    333.64914    58.678137   -40.999775   0.33743573 
    7880     338.6032    59.549398    -40.76403   0.26847325 
    7890    346.51663    60.941116   -41.161415   0.25068876 
    7900    319.21324    56.139329   -42.109518   0.33684645 
    7910      317.348    55.811293   -43.377349    0.3898212 
    7920    310.11493    54.539229   -44.744689   0.32190699 
    7930    314.23378    55.263601     -46.2902   0.36747329 
    7940     305.8683    53.792383   -47.923517   0.26780969 
    7950    291.37153    51.242867   -49.560638   0.14758534 
    7960    276.94848    48.706318   -50.955914  0.060904035 
    7970    285.16704    50.151697   -52.071101   0.25697335 
    7980    264.91251    46.589579   -52.899207   0.48220834 
    7990    259.31416    45.605009   -53.312651   0.34902289 
    8000    267.98628    47.130156   -53.236313   0.13249962 
    8010    265.33892    46.664571   -52.663738   0.12079524 
    8020    281.59757    49.523943   -51.501751   0.27718145 
    8030    287.21452    50.511784   -49.502192   0.32949658 
    8040    309.87019    54.496187   -46.557823   0.44903455 
    8050    337.80038    59.408208   -42.453279   0.49090021 
    8060    352.10986    61.924785   -38.243739   0.23848782 
    8070    352.22441    61.944929   -35.014297   0.10120277 
    8080    358.08367    62.975384   -33.042165   0.14806298 
    8090    375.03673    65.956882   -32.322038   0.25763049 
    8100    377.18812    66.335243   -32.896956   0.53968216 
    8110    354.94515     62.42342   -34.484855   0.64475409 
    8120    352.07535    61.918716    -36.46963   0.55819662 
    8130    354.77504    62.393503    -38.76295   0.40204026 
    8140    328.37434     57.75047   -40.998675   0.24008345 
    8150    309.16453    54.372084   -42.796118    0.1796799 
    8160    313.63569    55.158417   -44.171069   0.22421679 
    8170     308.3339    54.226003    -45.36236   0.27310283 
    8180    307.61002    54.098695   -46.470804   0.25220409 
    8190    286.96693    50.468241   -47.399941   0.25664185 
    8200    290.27426    51.049893   -48.103764     0.336053 
    8210    289.45076    50.905065   -48.626511     0.300269 
    8220    276.18597    48.572217   -48.950581   0.20646401 
    8230    287.32105    50.530518   -49.014864    0.2102691 
    8240    282.86828     49.74742    -48.86284   0.31351893 
    8250    290.72043     51.12836   -48.489479     0.293072 
    8260    302.89437    53.269365   -47.890736   0.29802854 
    8270    301.96649    53.106179   -47.182001   0.37777341 
    8280    308.71943    54.293804   -46.374802   0.26429258 
    8290    302.03521    53.118266   -45.425206  0.082920443 
    8300    307.15412    54.018517     -44.2489   0.12862442 
    8310    322.59588    56.734225    -42.72276   0.45613561 
    8320     325.9048    57.316157   -40.982919   0.66336291 
    8330    348.73208    61.330742   -39.229833   0.55843947 
    8340    343.86219    60.474284   -37.774515   0.45656191 
    8350    352.72154    62.032359   -36.819801   0.40358585 
    8360    358.25098    63.004809   -36.630108   0.30092273 
    8370    359.90373    63.295475   -37.490107   0.20810415 
    8380    346.35197    60.912156   -39.611587   0.20129701 
    8390    306.56004    53.914037   -42.610364   0.19107369 
    8400    303.35404    53.350206   -45.771668   0.11432175 
    8410     286.3973    50.368061   -48.737098   0.21052686 
    8420    276.76861    48.674685   -50.999882   0.31258438 
    8430    274.03585     48.19408    -52.62255   0.30658508 
    8440    249.45549    43.871187   -53.520529   0.28894499 
    8450    272.27041    47.883596   -53.831331   0.31536387 
    8460    259.93753    45.714639   -53.712831   0.30357601 
    8470    270.54011    47.579292   -53.170483   0.33301052 
    8480    271.89413    47.817421   -52.238828   0.29499675 
    8490    281.42666    49.493886   -50.975406   0.21531855 
    8500    282.21006    49.631661   -49.443511   0.20455939 
    8510    290.96492    51.171359   -47.722384   0.29135138 
    8520    296.11307    52.076752   -45.865199   0.30653885 
    8530    312.20885    54.907481   -44.065519   0.38750796 
    8540    320.27063    56.325288   -42.504383   0.39775939 
    8550    321.49048    56.539822   -41.416692   0.24290756 
    8560    339.01458    59.621746   -40.772085  0.070588847 
    8570     350.3594    61.616935   -40.779639   0.20079515 
    8580    327.40588     57.58015   -41.462074   0.43066238 
    8590    306.36252    53.879299   -42.306824   0.46701497 
    8600    311.79957    54.835502   -43.063524   0.43023192 
    8610    308.25371    54.211899   -43.723215   0.34803864 
    8620    311.77491    54.831165   -44.297198   0.28437394 
    8630    300.41602    52.833503   -44.786739   0.24316608 
    8640    302.23252    53.152967   -45.145992   0.20331712 
    8650    310.48918    54.605047    -45.45567   0.19286246 
    8660    303.71756    53.414137   -45.816405   0.31706138 
    8670    298.89321    52.565689   -46.185243     0.440919 
    8680    291.82012     51.32176   -46.491148   0.34340825 
    8690    281.32118    49.475335   -46.637779   0.22971064 
    8700    294.00809    51.706554   -46.588577   0.36830238 
    8710     297.4931    52.319455   -46.427314   0.42551916 
    8720    310.40404    54.590074   -46.230229   0.18903253 
    8730    309.51049    54.432926   -46.116166 -0.0075759369 
    8740    316.96035    55.743117    -46.18203   0.31000049 
    8750    322.09523    56.646177   -46.554617   0.51154288 
    8760    307.17285    54.021812   -47.377245   0.27646428 
    8770    286.69154    50.419808   -48.550365   0.16148293 
    8780    284.07557    49.959743   -49.943794   0.37826118 
    8790    278.24016    48.933483   -51.566778   0.39943922 
    8800    273.93064    48.175577   -53.314408   0.24543132 
    8810    258.59299    45.478178   -55.032148   0.20995303 
    8820    257.86356    45.349896   -56.452624   0.23957565 
    8830    249.94267    43.956866   -57.504641   0.17112778 
    8840     241.1003    42.401779   -58.044014  0.094127331 
    8850    236.59282    41.609057   -57.947941  0.086636828 
    8860    237.41504    41.753658   -57.072298   0.20708012 
    8870    254.05379    44.679879   -55.224025   0.31314378 
    8880    277.78456    48.853357   -52.380875    0.3084961 
    8890    295.51419    51.971429   -49.041101    0.2023512 
    8900    295.51029    51.970743   -46.008424   0.36315059 
    8910    318.81395    56.069106   -43.590865   0.54187622 
    8920    326.56129    57.431613   -41.916044   0.32900312 
    8930    343.07354    60.335586   -41.043568   0.26570268 
    8940    321.11248    56.473343   -40.848904   0.37999726 
    8950    330.17847     58.06776   -41.077329   0.34595972 
    8960    317.57503    55.851219   -41.641456   0.33522883 
    8970     318.0963    55.942894   -42.461226   0.24245249 
    8980    321.09409     56.47011   -43.549181    0.2152701 
    8990    308.17119    54.197387   -44.870125    0.1969111 
    9000    300.66522    52.877329   -46.308013   0.28076799 
    9010    290.62786     51.11208   -47.712816   0.32632572 
    9020     291.7025    51.301075   -49.035215   0.28342925 
    9030    288.77273    50.785822   -50.287866   0.22067099 
    9040    286.26941    50.345569   -51.467954   0.26337626 
    9050    285.18199    50.154328   -52.532477   0.28551465 
    9060    279.07513    49.080327   -53.566441   0.29165854 
    9070     267.3148    47.012065   -54.487798   0.36199742 
    9080    263.30757    46.307321   -55.259437   0.32070324 
    9090    256.98205    45.194866   -55.812075   0.16904832 
    9100    253.78465    44.632546     -56.0175   0.12012237 
    9110    271.45488    47.740171    -55.70331   0.16578489 
    9120     263.2648      46.2998   -54.732458   0.40700542 
    9130    273.13406    48.035484   -53.011217    0.4794958 
    9140    300.47839     52.84447   -50.411089   0.33063668 
    9150    301.37524    53.002198   -47.529957   0.14316802 
    9160     315.0695    55.410577   -44.749349   0.14556184 
    9170    320.52903    56.370732   -42.334324   0.10729268 
    9180    331.78087     58.34957   -40.424571   0.17339173 
    9190    339.90284    59.777962   -39.086593    0.4237509 
    9200     340.3354    59.854036   -38.412866   0.48554341 
    9210    345.95882    60.843014   -38.403368   0.29461487 
    9220    352.84502    62.054075   -39.148959   0.26366699 
    9230    344.63252     60.60976   -40.840473   0.42922064 
    9240    310.92745    54.682124   -43.084571   0.39550059 
    9250    318.49656    56.013288   -45.572735   0.34703671 
    9260    294.31753    51.760975   -48.138349   0.29542532 
    9270    288.46408    50.731541   -50.263278   0.29963888 
    9280    283.67264     49.88888   -51.995588   0.27545687 
    9290    276.90291    48.698304   -53.214798   0.13002528 
    9300    264.40314    46.499997   -53.926974  0.088943454 
    9310    266.08307    46.795442   -54.149382    0.2710816 
    9320    269.86894    47.461254   -53.948759   0.39423731 
    9330    262.01889    46.080684   -53.371035   0.40861673 
    9340    286.04515    50.306129    -52.43217   0.28711877 
    9350    276.04481    48.547391   -51.312721   0.25811088 
    9360    272.82828    47.981708   -50.065002   0.12758924 
    9370    278.53578    48.985473   -48.618874   0.19830904 
    9380    284.72107    50.073266   -47.088976    0.3283298 
    9390    308.72756    54.295235   -45.633862   0.35997483 
    9400    300.91117    52.920583   -44.548748   0.20343551 
    9410    300.22772    52.800386   -43.823368   0.17365688 
    9420    309.44542    54.421483   -43.355127   0.36729989 
    9430    309.30232    54.396316   -43.132521   0.43162256 
    9440    318.89197    56.082827     -43.1039   0.32172257 
    9450    319.90154    56.260377   -43.305843   0.13110476 
    9460    327.64207    57.621688   -43.789657    0.2677898 
    9470    317.07085    55.762551   -44.541225   0.40211894 
    9480    304.10308    53.481937    -45.44113   0.41136761 
    9490    306.00116    53.815749   -46.350588   0.33080948 
    9500      302.988    53.285831   -47.301223   0.27454539 
    9510       283.53    49.863795   -48.213808   0.24105388 
    9520    290.68449    51.122039   -48.944395   0.21491982 
    9530    289.47323    50.909018   -49.586446   0.33829644 
    9540    291.35312    51.239629    -50.14995   0.37792817 
    9550    276.94579    48.705844   -50.610661   0.28176966 
    9560    268.92742    47.295671   -50.831796   0.12615859 
    9570    287.19421    50.508211   -50.700243   0.19213735 
    9580    298.35339    52.470752   -50.253309   0.33187667 
    9590    298.35295    52.470675   -49.524417   0.45733686 
    9600    295.76053    52.014752   -48.434417    0.3288668 
    9610     283.5109    49.860436   -46.867893   0.15936474 
    9620    310.23872    54.560999   -44.630109   0.17822586 
    9630     333.8401    58.711722   -41.945391   0.31952453 
    9640    335.43943    58.992992   -39.478631   0.40052888 
    9650    346.74199    60.980749   -37.520466   0.45369843 
    9660    354.54587      62.3532   -36.258413   0.27366188 
    9670    350.44539    61.632057   -35.874759   0.31090478 
    9680    333.33077    58.622146   -36.265389   0.33773536 
    9690    356.30412    62.662419   -37.370008   0.25184388 
    9700    354.65934    62.373156   -39.593171   0.18009713 
    9710    321.08857    56.469139   -42.670843   0.20505475 
    9720    321.68009    56.573167   -45.974431   0.17412209 
    9730    293.48174    51.613986   -49.086368   0.25138978 
    9740    267.35627    47.019357   -51.219065   0.43514988 
    9750    294.31931    51.761288   -52.576108     0.546766 
    9760    282.82149    49.739191   -53.485255   0.42155331 
    9770    277.94279    48.881186   -54.002934   0.23328056 
    9780    274.79383    48.327385    -54.14555   0.20091858 
    9790     293.5295    51.622385   -54.024931   0.21148824 
    9800    266.75999     46.91449   -53.727539   0.21561556 
    9810    271.37621    47.726336   -53.131122    0.1956587 
    9820    266.60476     46.88719   -52.156746   0.32044901 
    9830    308.41605     54.24045    -50.81539   0.33369077 
    9840    304.73735    53.593486   -49.364909   0.32222891 
    9850    305.04115    53.646914    -48.08676   0.34186611 
    9860    306.30388    53.868988   -46.845712   0.17457758 
    9870    319.78778    56.240372   -45.566681   0.11999152 
    9880     309.5196    54.434529   -44.451589   0.17495993 
    9890    331.24441    58.255223   -43.464708   0.41988879 
    9900    329.91209    58.020911   -42.695917   0.45225879 
    9910    326.02807    57.337837   -42.267708   0.27744324 
    9920    313.13855    55.070985   -42.085014   0.25096319 
    9930    343.82889    60.468427   -42.186698   0.33684306 
    9940    323.48617    56.890799   -43.084272   0.36597887 
    9950    312.95266    55.038294   -44.808962   0.37929866 
    9960    315.32649    55.455774   -47.311522   0.34923411 
    9970    280.02716    49.247759   -50.101246   0.16082509 
    9980    265.27399     46.65315   -52.460069   0.15740372 
    9990     265.7519    46.737201   -54.254731   0.17831682 
   10000     259.7612    45.683629   -55.537594   0.23546168 
Loop time of 0.988775 on 1 procs for 10000 steps with 60 atoms

Performance: 7442.271 ns/day, 0.003 hours/ns, 10113.524 timesteps/s
92.5% CPU use with 1 MPI tasks x no OpenMP threads

MPI task timing breakdown:
Section |  min time  |  avg time  |  max time  |%varavg| %total
---------------------------------------------------------------
Pair    | 0.79327    | 0.79327    | 0.79327    |   0.0 | 80.23
Neigh   | 0.061467   | 0.061467   | 0.061467   |   0.0 |  6.22
Comm    | 0.016257   | 0.016257   | 0.016257   |   0.0 |  1.64
Output  | 0.086418   | 0.086418   | 0.086418   |   0.0 |  8.74
Modify  | 0.023099   | 0.023099   | 0.023099   |   0.0 |  2.34
Other   |            | 0.008268   |            |       |  0.84

Nlocal:    60 ave 60 max 60 min
Histogram: 1 0 0 0 0 0 0 0 0 0
Nghost:    50 ave 50 max 50 min
Histogram: 1 0 0 0 0 0 0 0 0 0
Neighs:    0 ave 0 max 0 min
Histogram: 1 0 0 0 0 0 0 0 0 0
FullNghs:  366 ave 366 max 366 min
Histogram: 1 0 0 0 0 0 0 0 0 0

Total # of neighbors = 366
Ave neighs/atom = 6.1
Neighbor list builds = 724
Dangerous builds = 0
unfix nvt

fix nve all nve
run ${Nrun0}
run 10000
Per MPI rank memory allocation (min/avg/max) = 6.283 | 6.283 | 6.283 Mbytes
Step Temp KinEng TotEng Press 
   10000     259.7612    45.683629   -55.537594   0.23546168 
   10010    254.14034    44.695101   -55.536618   0.22998091 
   10020    254.91726    44.831736   -55.539845   0.31595687 
   10030    247.27846    43.488317   -55.532915   0.33455736 
   10040    252.51962    44.410068   -55.543902    0.2703436 
   10050    251.85501    44.293184   -55.536762   0.20293028 
   10060    265.61018    46.712276   -55.537793   0.23935891 
   10070     259.4527    45.629373   -55.540861   0.29424316 
   10080    252.29669    44.370861   -55.536748   0.35394369 
   10090    255.92002    45.008089   -55.541401   0.18699848 
   10100    249.37937      43.8578   -55.533468   0.12326737 
   10110    269.51391    47.398816   -55.542309   0.15371624 
   10120    277.10589    48.734001   -55.539666    0.2768866 
   10130    260.84232    45.873764   -55.538124   0.27931447 
   10140    254.74323     44.80113   -55.540321   0.34162783 
   10150    251.69559    44.265148   -55.535701   0.37617718 
   10160    265.52432    46.697175   -55.543739   0.33109439 
   10170    260.53155    45.819108   -55.538586   0.11351242 
   10180    255.00778    44.847656   -55.540548  0.097722652 
   10190    245.38214    43.154815   -55.534088   0.18914875 
   10200     253.8846    44.650124   -55.542936    0.3194397 
   10210    248.80695    43.757129   -55.534475   0.30494107 
   10220    246.68606    43.384132   -55.540459    0.2737073 
   10230     238.1107    41.876004   -55.535364   0.29720733 
   10240     242.2725     42.60793   -55.537347   0.19980185 
   10250    250.69873    44.089833   -55.540632   0.14164485 
   10260    248.58139    43.717461   -55.537718   0.25550176 
   10270     253.7485    44.626189   -55.542155   0.33377785 
   10280    245.98757    43.261292   -55.533692   0.22370674 
   10290     250.6739    44.085466    -55.53881   0.16426194 
   10300    255.83442    44.993035   -55.538473    0.1379076 
   10310    267.87983    47.111435   -55.538847   0.29874627 
   10320    267.88196    47.111809   -55.539778   0.30982273 
   10330    253.50206    44.582848   -55.534195   0.32619203 
   10340    256.13771    45.046375   -55.538489   0.28622983 
   10350    264.44069      46.5066    -55.53963   0.24668228 
   10360    269.27737    47.357216   -55.543198   0.13960014 
   10370    246.46332    43.344961   -55.534104   0.16553052 
   10380    238.43671    41.933339   -55.536961   0.22207689 
   10390    242.77642    42.696553   -55.533043   0.24523707 
   10400    260.70966    45.850433   -55.543897   0.27512056 
   10410    246.18615    43.296215   -55.533097   0.16514512 
   10420    256.81103    45.164789   -55.539848   0.28102322 
   10430    262.21597    46.115343   -55.537212    0.3651462 
   10440     265.5838    46.707636   -55.537791   0.32315099 
   10450    263.66047    46.369384   -55.538575    0.2404402 
   10460    253.30894    44.548885   -55.536315   0.17250292 
   10470    258.02823    45.378856   -55.538624   0.11717791 
   10480    261.68861    46.022598   -55.537384   0.19125044 
   10490    262.54776    46.173695   -55.541195   0.32887805 
   10500    256.23594    45.063649   -55.534807   0.43763231 
   10510    267.11822    46.977492   -55.539567   0.22870941 
   10520    273.11926    48.032882   -55.537689    0.1681462 
   10530    274.84808    48.336926   -55.540044   0.15476123 
   10540    268.52821    47.225463   -55.535966   0.19871824 
   10550    268.07229    47.145282     -55.5399   0.18745969 
   10560     258.5036    45.462458    -55.53757   0.17591173 
   10570    258.75241    45.506215   -55.537784   0.22114581 
   10580    261.55878    45.999766   -55.540472   0.32873717 
   10590    254.80717    44.812374   -55.533128   0.38618678 
   10600    260.88919    45.882006   -55.537706    0.3645527 
   10610     258.7927      45.5133   -55.540865   0.28531368 
   10620     255.6025    44.952248   -55.534431   0.28897817 
   10630    267.96316     47.12609   -55.541102   0.31952137 
   10640    263.12166    46.274626   -55.533952   0.22963593 
   10650    264.44685    46.507684   -55.540132   0.14694208 
   10660    256.28537    45.072343   -55.535586  0.092242766 
   10670     259.6447    45.663141   -55.535487   0.14855233 
   10680    258.69734     45.49653   -55.542357   0.35446618 
   10690    245.84995    43.237089   -55.533512   0.39154096 
   10700    258.60238     45.47983   -55.540861   0.27054033 
   10710    258.08613    45.389038   -55.536606  0.081388705 
   10720    255.81629    44.989846   -55.535607   0.16809717 
   10730    263.79501    46.393047   -55.540569   0.15526154 
   10740    262.68301    46.197481   -55.538759    0.2166996 
   10750    266.47026    46.863536   -55.539664   0.33998397 
   10760    269.11848    47.329274   -55.540655   0.34433926 
   10770    259.05962    45.560244   -55.538696   0.20185766 
   10780    252.04673    44.326902   -55.537059   0.20956201 
   10790     259.6651    45.666728   -55.537977   0.41309723 
   10800    262.09584    46.094216   -55.540315   0.39628451 
   10810    256.99425    45.197012   -55.540604   0.17747827 
   10820    245.91711      43.2489   -55.531469  0.045035043 
   10830    270.60255    47.590273   -55.545359   0.11168343 
   10840    265.73109     46.73354   -55.536339   0.28605854 
   10850    260.64889    45.839745   -55.541189    0.3888924 
   10860    261.60636    46.008133   -55.537509   0.27738491 
   10870    276.47953    48.623845   -55.541318    0.1669606 
   10880    273.25735    48.057166   -55.538199   0.23330206 
   10890    274.86229    48.339425   -55.543831   0.28011818 
   10900    261.58052    46.003588   -55.535687   0.26135309 
   10910    253.79832    44.634951   -55.537247   0.15713866 
   10920     267.8919    47.113557   -55.544436   0.26829344 
   10930    264.02934    46.434257   -55.535817   0.29534626 
   10940    269.11855    47.329285   -55.537441   0.33802142 
   10950    264.81889    46.573114    -55.53677   0.27619918 
   10960    272.60961    47.943251   -55.547157   0.26644384 
   10970    271.15676    47.687741   -55.536755   0.41808173 
   10980    261.23073    45.942072   -55.538856   0.16056605 
   10990    266.67191       46.899   -55.542106 -0.0043471837 
   11000    271.04826    47.668659   -55.545691   0.10797373 
   11010    268.19159    47.166263   -55.547135   0.31606045 
   11020      251.036    44.149147   -55.537872   0.36183545 
   11030    248.07568    43.628522   -55.538374   0.37476502 
   11040    268.51062    47.222371   -55.547735   0.31797747 
   11050    264.92774    46.592257   -55.542793   0.23984599 
   11060    252.86368    44.470578   -55.539693  0.075106094 
   11070    253.58903    44.598143    -55.53795   0.10830776 
   11080    262.11342    46.097308   -55.544529   0.27697781 
   11090    266.13578    46.804713   -55.540287   0.44162532 
   11100    271.19868    47.695113   -55.543117   0.28231485 
   11110    253.88511    44.650213    -55.53525   0.11694442 
   11120    273.44613    48.090367   -55.547554  0.077283884 
   11130    258.83485    45.520714   -55.536762   0.11741252 
   11140    253.60696    44.601297   -55.543657   0.24703838 
   11150    250.20878    44.003666   -55.537352    0.3196294 
   11160    255.81976    44.990457    -55.54094   0.32286728 
   11170    269.71244    47.433732   -55.547674   0.35670342 
   11180    259.45485    45.629751   -55.535557    0.2584389 
   11190      257.255    45.242869     -55.5399   0.20795362 
   11200    256.17219    45.052437   -55.539668   0.24667224 
   11210    251.33188    44.201184   -55.539199   0.27654118 
   11220    251.59295    44.247097   -55.543015   0.33427061 
   11230    249.89178    43.947916    -55.53957   0.23411382 
   11240    250.35407    44.029217   -55.536071   0.10074055 
   11250    263.10378    46.271481   -55.542898   0.14504051 
   11260    260.97352    45.896838   -55.536752   0.32683414 
   11270    259.09814    45.567017   -55.539027   0.35748163 
   11280    251.95384    44.310565   -55.536275   0.32744884 
   11290    254.75511    44.803219   -55.540779   0.17023546 
   11300    245.77531    43.223961   -55.534678  0.093540179 
   11310    260.80022    45.866359   -55.542733   0.24817236 
   11320     261.7628    46.035646   -55.543519   0.34376092 
   11330    266.61512    46.889013   -55.544512   0.28405762 
   11340    266.51186    46.870852   -55.540867   0.14991662 
   11350    258.57357    45.474763   -55.537738    0.2027158 
   11360      261.703    46.025129   -55.547161   0.23483419 
   11370    251.96396    44.312346   -55.534196   0.17863192 
   11380    261.41184    45.973923    -55.54969   0.27324068 
   11390    251.85348    44.292916   -55.537259   0.33654903 
   11400    261.89849    46.059509   -55.544565   0.28599405 
   11410      255.387    44.914348   -55.546994   0.26867318 
   11420    243.40496    42.807093   -55.534959   0.19562676 
   11430    259.85554    45.700221   -55.540208   0.24464132 
   11440    250.22627    44.006741   -55.540285   0.30370248 
   11450    254.14159     44.69532   -55.541278   0.27943131 
   11460    261.47672    45.985333   -55.540115   0.20125512 
   11470    252.00292    44.319197   -55.538807     0.111325 
   11480    249.02164    43.794886   -55.541238   0.16630202 
   11490    263.32145    46.309763   -55.542325   0.40912665 
   11500    260.38283    45.792953   -55.537659   0.35842522 
   11510    256.17942    45.053709   -55.543563   0.15139599 
   11520    251.33734    44.202143   -55.537658  0.066954197 
   11530    269.36314      47.3723   -55.550298   0.23270883 
   11540    265.02619    46.609572   -55.534735   0.41052251 
   11550    276.90282    48.698288   -55.546464   0.42041747 
   11560    263.32317    46.310065   -55.535191   0.31182789 
   11570    264.39464    46.498501   -55.538864   0.16642722 
   11580    271.24778    47.703748   -55.542697   0.14489483 
   11590    253.40787    44.566283    -55.53914    0.2093458 
   11600     239.7644    42.166836   -55.534552   0.11735373 
   11610    249.04528    43.799043   -55.542029   0.22473286 
   11620    252.43642    44.395435   -55.537766   0.37076468 
   11630    259.94555    45.716051   -55.543717   0.33933232 
   11640    251.59282    44.247073   -55.535419   0.28322425 
   11650    262.93974    46.242632   -55.542196   0.27788197 
   11660    264.66567    46.546168   -55.541334   0.22741666 
   11670     245.5553    43.185269    -55.53585    0.1219969 
   11680    244.01581    42.914523    -55.53638  0.062630771 
   11690    254.83718    44.817652   -55.540899   0.25217128 
   11700    259.40182    45.620425   -55.537791   0.37403344 
   11710    260.83266    45.872065   -55.540156   0.26018889 
   11720    254.08054    44.684584   -55.539223   0.19898354 
   11730    248.47154    43.698141   -55.537433   0.19906099 
   11740    250.62501    44.076868   -55.535671   0.21105112 
   11750    256.92745    45.185263   -55.539989   0.32330531 
   11760    258.42606    45.448821   -55.536973   0.25496945 
   11770    267.28755    47.007272   -55.536574   0.27350296 
   11780    283.84788      49.9197   -55.552621   0.36716449 
   11790    261.93139    46.065295   -55.532238   0.26382414 
   11800    266.76406    46.915206   -55.549524   0.18866888 
   11810      250.713    44.092341   -55.536647    0.1197477 
   11820    260.94155    45.891215   -55.541832   0.19418524 
   11830    253.66199    44.610974   -55.534917   0.28729314 
   11840    256.11878    45.043045   -55.543771   0.24831757 
   11850     245.6985    43.210454   -55.532416   0.37724768 
   11860    263.18913    46.286492   -55.544721   0.30519927 
   11870    269.07092    47.320909   -55.543867   0.28922212 
   11880    260.98745    45.899288   -55.538295   0.11349232 
   11890    259.82706    45.695212   -55.538739   0.16885532 
   11900    257.62196    45.307405   -55.538278   0.23184409 
   11910    252.38477    44.386352   -55.531019   0.16090152 
   11920     255.2354    44.887687   -55.539024   0.21775341 
   11930    259.80085    45.690602   -55.543673   0.25966609 
   11940    259.63818    45.661994   -55.541461   0.30419579 
   11950     259.6202    45.658832   -55.542747   0.29452074 
   11960     254.9962    44.845619   -55.535578  0.074963442 
   11970    262.30866    46.131644   -55.538194   0.23800333 
   11980    260.70902     45.85032   -55.540259   0.39633541 
   11990     257.9648      45.3677   -55.545225   0.46296722 
   12000    251.71975    44.269396   -55.534888   0.30128599 
   12010    259.76032    45.683474   -55.543825   0.13392268 
   12020     256.1482    45.048218   -55.540075 0.0019380877 
   12030    258.44272    45.451751   -55.537178   0.14154007 
   12040    257.42381    45.272558    -55.53739   0.23719309 
   12050    259.77509    45.686071   -55.535799   0.29979635 
   12060    265.37324    46.670606   -55.543868   0.37868013 
   12070    248.37988    43.682022   -55.536595   0.35303796 
   12080    250.17683    43.998047   -55.536639   0.17270218 
   12090    261.27646    45.950115   -55.541908   0.23510477 
   12100    254.48749    44.756153   -55.538009   0.37209396 
   12110    262.36954    46.142352    -55.54636   0.21756929 
   12120    247.74803    43.570899   -55.528351   0.10075825 
   12130    260.48274    45.810525   -55.542976   0.10434825 
   12140    263.69735    46.375871   -55.538337   0.25611557 
   12150    269.96579    47.478287   -55.540862   0.38320164 
   12160    266.75252    46.913177   -55.538265   0.28180301 
   12170    266.70546    46.904901   -55.538387   0.15290407 
   12180    260.90183     45.88423   -55.537974   0.23406316 
   12190    267.22863    46.996909   -55.541447   0.50501695 
   12200    259.42883    45.625176   -55.536249   0.37976114 
   12210    253.25204    44.538878   -55.541971   0.20769486 
   12220    247.68388    43.559617   -55.532451   0.17433072 
   12230    265.15363    46.631984   -55.543738  0.078374419 
   12240    259.71327      45.6752   -55.536497  0.099236287 
   12250    261.54104    45.996646   -55.537649   0.15923383 
   12260     254.9586    44.839006   -55.539705   0.30666519 
   12270    265.07843    46.618758   -55.544522   0.40667322 
   12280    275.21291    48.401087   -55.545153   0.27067891 
   12290    255.21187    44.883549   -55.533125   0.22402353 
   12300    244.02962    42.916951   -55.535875   0.25805239 
   12310    240.26777    42.255362   -55.535948   0.24802944 
   12320    243.85253    42.885807    -55.53501   0.16142647 
   12330     248.5059    43.704183    -55.53573   0.23701888 
   12340    252.50699    44.407848   -55.538046   0.31697127 
   12350    253.49751    44.582048   -55.536797   0.27877718 
   12360    254.34624    44.731312   -55.536588    0.2050767 
   12370    253.25829    44.539977   -55.536303   0.15426766 
   12380    256.13714    45.046274   -55.537113   0.17724651 
   12390    258.01048    45.375734    -55.53744   0.24164239 
   12400    261.53124    45.994922    -55.53808   0.30316554 
   12410    262.13453    46.101021   -55.535821   0.30129753 
   12420    269.44466    47.386638   -55.539782   0.26735997 
   12430    273.12046    48.033092   -55.540378   0.26042644 
   12440    268.66966    47.250341   -55.541248   0.16254206 
   12450    257.22172    45.237015   -55.534312   0.11783871 
   12460    254.19553    44.704807   -55.536104   0.21849584 
   12470     259.7903    45.688747   -55.539635   0.33231598 
   12480     259.7872    45.688201   -55.537639   0.34454278 
   12490    260.70988    45.850472   -55.536285   0.44145204 
   12500    262.32704    46.134878   -55.536254   0.41664356 
   12510    263.17728    46.284408   -55.536212   0.26839106 
   12520     259.9322    45.713702   -55.537247   0.17115213 
   12530    252.97041    44.489347    -55.53334  0.010440632 
   12540    260.45052    45.804859   -55.540957  0.093611845 
   12550    261.50442    45.990205    -55.53758   0.23560219 
   12560    265.65881    46.720828   -55.538567   0.27988116 
   12570    266.11509    46.801073   -55.537476   0.34507862 
   12580     262.6232    46.186962   -55.535384   0.35356365 
   12590    261.17943     45.93305   -55.540042   0.26020756 
   12600    248.11696    43.635782   -55.533561   0.26836391 
   12610    253.33799    44.553993   -55.537721   0.25923188 
   12620    260.20233     45.76121   -55.537982   0.17503592 
   12630    259.13593    45.573663   -55.538299   0.18342108 
   12640    249.62404     43.90083   -55.536009   0.19265712 
   12650    250.81886     44.11096   -55.537879   0.26397917 
   12660    254.96458    44.840058   -55.538755    0.2112557 
   12670    251.60235     44.24875   -55.535222   0.19121379 
   12680    259.38594    45.617633   -55.538818   0.24127083 
   12690    263.10262    46.271278    -55.54383   0.21859577 
   12700    250.72484    44.094424   -55.529271   0.34475963 
   12710     278.1105    48.910679   -55.543603    0.2308413 
   12720    265.03627    46.611345   -55.533889   0.19610455 
   12730    260.02366    45.729787   -55.543631   0.24908896 
   12740    250.17131    43.997076   -55.535628   0.25286833 
   12750    257.64246    45.311011   -55.536905   0.34923414 
   12760    263.25917     46.29881   -55.540222   0.36116672 
   12770    259.59958    45.655205   -55.538904   0.18766004 
   12780    245.53062    43.180928   -55.534124   0.23616432 
   12790    267.32581       47.014   -55.550198   0.27117188 
   12800     256.9026    45.180894   -55.530863   0.23619208 
   12810    254.42533    44.745221   -55.535107  0.092952302 
   12820    255.81856    44.990246   -55.537651  0.070645831 
   12830    252.71042    44.443625   -55.537976   0.21086233 
   12840     251.3061     44.19665   -55.533624   0.32807892 
   12850    263.86572    46.405482   -55.540807   0.45779034 
   12860    254.35826    44.733426   -55.536538   0.47993572 
   12870    257.76672    45.332865   -55.535165    0.2945864 
   12880    260.53977    45.820555   -55.535071   0.09628534 
   12890    258.23872    45.415874    -55.53992  0.056146789 
   12900    254.51052    44.760204   -55.535292   0.25883915 
   12910      254.798    44.810762   -55.537819    0.3212957 
   12920    260.22762    45.765658   -55.542754   0.24952329 
   12930    255.72075    44.973043   -55.532843   0.20398313 
   12940    265.08784    46.620414   -55.541752   0.19135394 
   12950    264.95651    46.597317   -55.541059   0.25075555 
   12960    251.61087    44.250248   -55.530471   0.26157498 
   12970    257.93884    45.363134   -55.539227    0.2091119 
   12980    257.31134    45.252778   -55.536738   0.22906186 
   12990    258.72071    45.500641   -55.538413   0.30440645 
   13000    248.31766    43.671078   -55.535662    0.2794089 
   13010    248.41817    43.688756   -55.540032   0.14846451 
   13020    245.47433    43.171029   -55.533206   0.15531575 
   13030    260.84735    45.874648    -55.54467   0.29665274 
   13040    248.39138    43.684044   -55.533619   0.43648408 
   13050    253.67236    44.612798   -55.538283   0.41193393 
   13060    259.44955    45.628819   -55.538264   0.19941836 
   13070    263.09346    46.269665   -55.540307   0.17236286 
   13080    259.72864    45.677902   -55.538582   0.16423708 
   13090    253.84436    44.643047   -55.537577   0.12320325 
   13100    254.87773    44.824783   -55.537509   0.18778549 
   13110    257.10036    45.215673   -55.536269   0.24117579 
   13120    259.90111    45.708235   -55.539675   0.37590067 
   13130    260.97647    45.897355   -55.544362   0.34843336 
   13140    248.38886    43.683601   -55.533565   0.25448979 
   13150    262.28849    46.128098   -55.540952  0.090614526 
   13160    272.88644    47.991936      -55.544   0.20860124 
   13170    256.32901    45.080017   -55.535943   0.28646222 
   13180    253.99528     44.66959   -55.538917   0.22949215 
   13190    245.95748    43.255999   -55.533467   0.24184663 
   13200    247.86041    43.590664   -55.537331   0.24051842 
   13210    250.96059    44.135886   -55.538536   0.14149483 
   13220    252.41213    44.391164   -55.530528   0.22461185 
   13230    271.83671    47.807322   -55.541365   0.23040681 
   13240    270.53999     47.57927   -55.540671   0.16702596 
   13250    254.09179    44.686562   -55.533057   0.15222127 
   13260    254.31725    44.726214   -55.538859   0.33786988 
   13270    252.91448    44.479511   -55.539388   0.41978386 
   13280    249.83774    43.938411   -55.535284   0.44545691 
   13290     259.6593    45.665708   -55.526451   0.37564295 
   13300    280.29365    49.294625   -55.538993   0.28911947 
   13310    276.31418    48.594765   -55.536142   0.12823396 
   13320    259.11061    45.569211   -55.534464   0.02462104 
   13330    256.35464    45.084526   -55.535324  0.021460032 
   13340    257.72449    45.325438   -55.537905    0.1392796 
   13350    244.52924    43.004817   -55.532384   0.25270031 
   13360    253.39907    44.564736   -55.534324   0.41220504 
   13370    265.74079    46.735246   -55.539264   0.42049663 
   13380    260.15286    45.752509    -55.53346   0.35662097 
   13390    261.83386    46.048142   -55.536775   0.15832916 
   13400    258.46567    45.455787   -55.534143   0.11721419 
   13410    263.71312    46.378645    -55.53329   0.19964745 
   13420    268.52317    47.224578   -55.537552    0.4171055 
   13430    258.03167    45.379461   -55.535152   0.39033605 
   13440    248.77834    43.752097   -55.533356   0.25022526 
   13450    250.81157    44.109676   -55.534977    0.1820249 
   13460    256.70315    45.145816    -55.53624   0.14505353 
   13470    257.46497    45.279797   -55.536985   0.13446102 
   13480    245.31905     43.14372     -55.5313   0.15609746 
   13490    252.00457    44.319487   -55.533743   0.22247251 
   13500    251.70727    44.267201   -55.534016   0.32139591 
   13510     248.6338    43.726678   -55.532548   0.32801617 
   13520    253.55797     44.59268   -55.533001   0.25901658 
   13530    260.04848    45.734152   -55.537425   0.26444568 
   13540    248.41944    43.688979   -55.531875   0.23406527 
   13550    250.51065    44.056756   -55.533479   0.23715301 
   13560    255.88137    45.001292   -55.534504   0.22963062 
   13570    257.64193    45.310918   -55.535872   0.16329813 
   13580    257.39456    45.267413   -55.535898    0.2190404 
   13590    251.97865    44.314928   -55.533821   0.45927366 
   13600    257.31071    45.252667   -55.539157   0.47565445 
   13610    263.49617     46.34049   -55.536575   0.23434411 
   13620    267.98953    47.130728   -55.535852  0.093303444 
   13630    265.39723    46.674826   -55.536707  0.080495909 
   13640     265.0481    46.613424   -55.540519   0.11888447 
   13650    247.87244    43.592778   -55.529065  0.099488718 
   13660    261.28658    45.951894   -55.540979   0.22947813 
   13670    262.11869    46.098235   -55.534031     0.317751 
   13680    257.84101     45.34593   -55.536209   0.21732364 
   13690    259.48257    45.634627   -55.536047   0.23215599 
   13700    269.42686    47.383508    -55.54181   0.29969128 
   13710    261.28457     45.95154   -55.528826   0.31758546 
   13720    275.46288    48.445049   -55.543785   0.19556419 
   13730    253.55173    44.591582   -55.525982   0.29528832 
   13740    271.33538    47.719155   -55.540327   0.48314371 
   13750    260.48314    45.810596   -55.537835   0.41221389 
   13760    249.14003    43.815707   -55.534155   0.14254676 
   13770    261.46439    45.983166   -55.536109  0.091322993 
   13780     266.3299    46.838851   -55.536464   0.17062729 
   13790    260.37219    45.791082   -55.536788   0.23005899 
   13800    255.10952    44.865548   -55.532306   0.31005359 
   13810    264.05104    46.438073   -55.538174   0.24087983 
   13820      257.688     45.31902   -55.534285   0.18115536 
   13830    257.17777    45.229287   -55.534183   0.20263225 
   13840     260.2118    45.762875   -55.536371   0.21032453 
   13850    255.79288    44.985729   -55.532124   0.19277439 
   13860    268.42856    47.207938    -55.53629   0.32060766 
   13870    268.81343    47.275624     -55.5349   0.38745936 
   13880    265.33394    46.663694   -55.532832   0.41802548 
   13890    269.13999    47.333056   -55.537796   0.23926554 
   13900    255.18353    44.878564   -55.534428  0.044277477 
   13910    243.92445    42.898455   -55.533023 -0.025677164 
   13920    251.01999    44.146332   -55.533896  0.093368753 
   13930    266.32747    46.838424   -55.540407   0.25865758 
   13940    253.15644    44.522064   -55.533318   0.44385667 
   13950    250.64009    44.079519   -55.534897    0.4658273 
   13960    260.81811    45.869506   -55.537699   0.40161787 
   13970    256.13664    45.046186   -55.535548   0.14980003 
   13980    248.81884     43.75922    -55.53378   0.11857733 
   13990    257.10831    45.217071   -55.540203   0.29334512 
   14000     260.1435    45.750863   -55.537286   0.20925587 
   14010    260.99275     45.90022   -55.534497  0.074424535 
   14020    255.93129    45.010072   -55.534571   0.20866437 
   14030    258.51147    45.463841   -55.537962   0.40054357 
   14040    260.20509    45.761695   -55.533578   0.43099432 
   14050    268.98925    47.306546   -55.541568    0.2111377 
   14060    253.68999    44.615899   -55.534534   0.15944962 
   14070    250.47414    44.050334   -55.534958   0.12648595 
   14080    260.41241    45.798156   -55.534747  0.097425645 
   14090    270.11441    47.504425   -55.536083   0.26957491 
   14100    268.77393    47.268678   -55.534066   0.41317344 
   14110    267.90077    47.115117   -55.536423    0.4930106 
   14120    271.43044    47.735872   -55.538101   0.46404036 
   14130    259.11353    45.569725   -55.529351   0.23340829 
   14140    265.15984    46.633077   -55.542949  0.090963558 
   14150    249.71862    43.917463   -55.532484   0.10386142 
   14160    251.33075    44.200985   -55.537212   0.11623186 
   14170    254.93564    44.834969   -55.535229   0.14681138 
   14180    266.23257    46.821735   -55.537916   0.20255309 
   14190    258.57389    45.474819   -55.534836   0.33346648 
   14200    253.80535    44.636187   -55.541081   0.30578507 
   14210    236.19487     41.53907   -55.529348    0.2001455 
   14220    253.00958    44.496236    -55.53916   0.36936369 
   14230    259.68813    45.670778   -55.532282   0.44775402 
   14240    267.16044    46.984917   -55.536696   0.29453536 
   14250     262.7021    46.200838   -55.533745   0.17505118 
   14260    250.72379    44.094239     -55.5336  0.036301538 
   14270    241.80246    42.525265   -55.532244  0.022694075 
   14280    253.99456    44.669462   -55.534758   0.15262683 
   14290     263.2185    46.291657   -55.537766   0.38844773 
   14300    254.26723    44.717417   -55.533272   0.43498551 
   14310    251.06425    44.154115   -55.532133   0.23829403 
   14320    260.32241    45.782327   -55.538093   0.19086841 
   14330    251.11506    44.163052   -55.531516   0.18076837 
   14340    260.72361    45.852885   -55.533105    0.1374312 
   14350    275.43193    48.439605   -55.541775   0.30224253 
   14360     250.7053    44.090988   -55.528603   0.44466671 
   14370    260.65745    45.841251   -55.539506   0.41422253 
   14380    264.31885    46.485173   -55.536867   0.19572101 
   14390    260.26501    45.772233   -55.534929 -0.0045137507 
   14400    264.91021    46.589174    -55.53898  0.071084373 
   14410    257.57336    45.298858    -55.53439   0.28555267 
   14420    254.42543    44.745238   -55.534974    0.3491799 
   14430    267.92876     47.12004   -55.543387   0.31141183 
   14440    253.68733     44.61543   -55.531312   0.16025352 
   14450    264.96962    46.599623   -55.537461   0.19617755 
   14460    268.91311    47.293154   -55.532677   0.29810159 
   14470     260.6184    45.834383   -55.535293   0.25124338 
   14480    265.71001    46.729834   -55.537056   0.29871039 
   14490    270.06728    47.496136    -55.53678   0.28382605 
   14500     252.3629    44.382506   -55.528135   0.24973692 
   14510    268.38288    47.199904   -55.540614   0.37218755 
   14520     264.5486    46.525579   -55.536815   0.25816862 
   14530    258.93248    45.537884   -55.536513   0.12471314 
   14540    258.94258     45.53966   -55.534368   0.18478797 
   14550    260.31448    45.780934   -55.539531   0.24001388 
   14560    247.02106    43.443049   -55.529589   0.18050266 
   14570    263.10117    46.271023   -55.541022   0.23143139 
   14580    256.34404    45.082661   -55.532448   0.33622432 
   14590    259.50849    45.639186   -55.538162   0.21565703 
   14600    255.78081    44.983607   -55.534674   0.11714463 
   14610    247.68213    43.559309    -55.53367   0.19593111 
   14620    253.27289    44.542545   -55.534427   0.34191362 
   14630     259.6387    45.662085    -55.53388   0.34530199 
   14640    266.64785    46.894769   -55.541968   0.35827207 
   14650     255.8525    44.996214   -55.532742   0.31526712 
   14660    258.92549    45.536655   -55.536242   0.19411882 
   14670    253.83813    44.641951   -55.536623   0.14660925 
   14680    243.42004    42.809746   -55.532498   0.22220795 
   14690    247.79653    43.579429   -55.531122   0.18804035 
   14700    255.58182    44.948611   -55.541027   0.12270381 
   14710    240.60859    42.315302   -55.529507   0.14217059 
   14720    255.65541    44.961553   -55.537683   0.31377909 
   14730    259.99958    45.725553   -55.538295   0.32734275 
   14740    253.80036    44.635309   -55.531278   0.15729445 
   14750    250.29275    44.018433    -55.53756   0.23587291 
   14760    243.27648    42.784498   -55.531985   0.33351303 
   14770    253.59173    44.598618   -55.536467   0.40764035 
   14780    249.83063    43.937162   -55.535494   0.29268358 
   14790    252.97976    44.490993   -55.535308   0.22163961 
   14800    256.30267    45.075385   -55.539853   0.19485575 
   14810    245.51995    43.179052   -55.529045   0.27262993 
   14820    267.13881    46.981112   -55.540596   0.23177405 
   14830    251.48857     44.22874   -55.533489   0.13832984 
   14840    246.50909     43.35301   -55.533841   0.17628677 
   14850    257.36616    45.262419   -55.538584   0.28985701 
   14860    253.57528    44.595725   -55.537791   0.30224458 
   14870    250.69356    44.088923   -55.534909   0.34603759 
   14880    253.57294    44.595314   -55.538178   0.26658552 
   14890    247.56923    43.539453   -55.528725    0.1866085 
   14900    265.93565    46.769516    -55.54387   0.21758461 
   14910    251.83077    44.288922    -55.52844   0.23352736 
   14920    259.07466    45.562888   -55.537081   0.19994901 
   14930    260.43964    45.802944   -55.539867   0.10896226 
   14940    258.32623    45.431263   -55.536877   0.12830082 
   14950    255.61276    44.954052   -55.533873   0.22223809 
   14960    253.91976    44.656308     -55.5355   0.33116992 
   14970    253.70207    44.618024   -55.532092   0.30803632 
   14980    262.84419    46.225828   -55.530629   0.27949611 
   14990    254.59808    44.775603   -55.531996   0.28429272 
   15000    251.10659    44.161562   -55.532907   0.26613647 
   15010    255.68543    44.966832   -55.533164   0.21725041 
   15020    263.05687     46.26323    -55.53724   0.29251901 
   15030    248.28577     43.66547   -55.528513   0.29708998 
   15040    252.92526    44.481406   -55.534757   0.22397509 
   15050    261.76701    46.036386   -55.535037   0.38289819 
   15060    258.28735    45.424426   -55.531707   0.38166296 
   15070    266.23804    46.822697   -55.537873   0.25303433 
   15080    254.80643    44.812245   -55.531414  0.099742534 
   15090     254.1264    44.692648   -55.535716   0.13047016 
   15100    250.26216    44.013053   -55.528851   0.23386047 
   15110    271.49282    47.746843   -55.540284   0.27902986 
   15120    261.95118    46.068775   -55.528563   0.21634208 
   15130    266.15747    46.808527   -55.537634   0.22816792 
   15140    260.73847    45.855499   -55.531928   0.22436914 
   15150    261.92664    46.064461   -55.534631   0.19881736 
   15160    257.10011    45.215628   -55.533035   0.15057639 
   15170    257.23887    45.240032   -55.533233   0.19229022 
   15180    258.19256    45.407756   -55.533371   0.31523308 
   15190    265.24969    46.648877   -55.536206   0.34979268 
   15200     266.5914    46.884841   -55.531764   0.29928693 
   15210    272.03164    47.841604   -55.535749   0.25488072 
   15220    262.71144    46.202481   -55.532949   0.22232303 
   15230    258.17336     45.40438   -55.532723   0.14731225 
   15240    261.88331     46.05684   -55.532614   0.14857221 
   15250    262.65058    46.191778   -55.537232   0.26951824 
   15260    246.13644    43.287472   -55.525948   0.40811883 
   15270    258.20404    45.409774   -55.537754   0.40568315 
   15280    255.31312    44.901355   -55.534616   0.28825284 
   15290    247.66429    43.556172   -55.529245   0.15364127 
   15300    261.91096    46.061703   -55.536718   0.12131885 
   15310    273.57096    48.112321   -55.534377   0.25618847 
   15320    268.33668    47.191779   -55.537002   0.24732328 
   15330     250.3599    44.030243   -55.528382   0.11952298 
   15340    264.82899     46.57489   -55.535302    0.1323205 
   15350    259.36771    45.614427   -55.536425   0.35156714 
   15360    258.33216    45.432306   -55.533967   0.37426501 
   15370    270.12711    47.506659   -55.540116   0.21408542 
   15380    256.97119    45.192956   -55.531298   0.28158365 
   15390    248.20765    43.651732   -55.533774   0.35895054 
   15400    246.35868    43.326557   -55.532968   0.30652298 
   15410    252.35909    44.381836   -55.532485   0.20519347 
   15420    251.42355    44.217306   -55.532152   0.08736434 
   15430    257.09399    45.214552   -55.534535  0.031893926 
   15440    262.72023    46.204028   -55.534708   0.17214754 
   15450    267.76985    47.092092   -55.537418   0.33146709 
   15460    256.03596    45.028478   -55.535359    0.4483781 
   15470    260.62392    45.835354   -55.537093   0.40413912 
   15480    274.99383    48.362557   -55.537866    0.2764164 
   15490    263.06775    46.265145   -55.532009   0.23933248 
   15500    267.12656    46.978958   -55.536336   0.20588221 
   15510    266.17699     46.81196   -55.532804   0.10347035 
   15520    260.31702     45.78138   -55.535149   0.10754561 
   15530    250.66624    44.084118   -55.530859    0.2554525 
   15540    250.25875    44.012453   -55.532377   0.26015241 
   15550    255.12641    44.868518   -55.533346   0.27774869 
   15560    256.71729    45.148303   -55.535371    0.3408637 
   15570    255.35622    44.908934   -55.530568   0.35988145 
   15580    265.48811    46.690808   -55.534953   0.22673969 
   15590    256.22983    45.062574   -55.530475   0.16624643 
   15600    253.86455    44.646599   -55.534023   0.19735934 
   15610    259.37602    45.615888   -55.533839   0.18955917 
   15620    261.93842    46.066531   -55.532416  0.089016448 
   15630    266.35416    46.843118   -55.535994   0.22712982 
   15640    259.59589    45.654557   -55.537283   0.37971328 
   15650    257.24554    45.241205   -55.535034   0.42642385 
   15660    264.96666    46.599101   -55.537077    0.4029059 
   15670    251.49252    44.229434   -55.530911   0.20425087 
   15680    258.66264    45.490428    -55.53456  0.089644442 
   15690     269.9604     47.47734   -55.533001   0.12008529 
   15700    268.27683    47.181254   -55.533072   0.27733025 
   15710    254.68627    44.791113   -55.530274   0.32904277 
   15720    262.00382    46.078033   -55.535117   0.31926649 
   15730    267.24068    46.999028   -55.535783   0.31516911 
   15740    256.46244    45.103483   -55.532014   0.15641821 
   15750    253.26419    44.541013   -55.531179  0.053969085 
   15760    266.04994    46.789616   -55.535728   0.13210671 
   15770    263.78386    46.391085   -55.538939   0.27195066 
   15780    244.45405    42.991594   -55.527438   0.33962121 
   15790    265.62709    46.715249   -55.538368   0.47321507 
   15800    269.73017     47.43685   -55.536831    0.3288379 
   15810    252.48468    44.403923   -55.530691  0.081386104 
   15820    258.16476    45.402866   -55.535392  0.058408175 
   15830    260.56517    45.825022   -55.532776   0.19647905 
   15840    253.18041    44.526281   -55.534445   0.25897907 
   15850     246.8865    43.419385   -55.530407   0.24175545 
   15860    261.61169    46.009071   -55.540984   0.28615719 
   15870    253.83888    44.642084   -55.530982   0.37847387 
   15880    267.41493    47.029674   -55.539084   0.26815679 
   15890    259.12888    45.572424   -55.534028   0.17558138 
   15900    250.83221    44.113307   -55.529394   0.15281466 
   15910    261.90916    46.061386    -55.53326   0.29613749 
   15920    265.05406    46.614473   -55.534303   0.43041121 
   15930    264.50052    46.517122   -55.534117   0.37102463 
   15940    257.98789    45.371761   -55.530743   0.11060277 
   15950    263.54603    46.349259   -55.535982   0.12516392 
   15960    259.05858    45.560061   -55.530744   0.17272101 
   15970    260.16719     45.75503   -55.535735   0.20384899 
   15980      262.792    46.216649    -55.53162   0.19035921 
   15990    268.56589    47.232091   -55.536739   0.28380696 
   16000    260.08908    45.741292   -55.530404    0.3859487 
   16010    272.94438    48.002125   -55.538431   0.26606358 
   16020    266.46245    46.862163   -55.535396   0.22790768 
   16030    251.30511    44.196476   -55.527632   0.19467331 
   16040    270.30475      47.5379   -55.538454   0.30002915 
   16050    261.71533    46.027297   -55.531464   0.32530947 
   16060    260.18688    45.758493   -55.532577   0.24014679 
   16070    259.54719    45.645992   -55.533837   0.24864251 
   16080    249.24156    43.833563   -55.530043   0.25579461 
   16090     257.5447    45.293818   -55.534026   0.27260599 
   16100    269.34306     47.36877   -55.533686   0.23090757 
   16110    274.65773    48.303449   -55.534942   0.19796054 
   16120    267.56799    47.056592   -55.533138  0.057766967 
   16130    261.62572    46.011538   -55.532957  0.039755422 
   16140      260.976    45.897273   -55.532289   0.11243592 
   16150    251.17145    44.172969   -55.534662   0.31798053 
   16160    248.59987    43.720711   -55.532187   0.43494654 
   16170     261.2559    45.946498   -55.534721   0.43934986 
   16180    257.17769    45.229272   -55.533293   0.32064377 
   16190    250.35335    44.029092    -55.52064   0.15462933 
   16200    277.43208    48.791367   -55.543474   0.20089559 
   16210    262.86533    46.229545   -55.529516    0.2647729 
   16220    262.68893    46.198523   -55.533813   0.25576172 
   16230     258.2224    45.413003   -55.532043   0.21969845 
   16240    252.70127    44.442015   -55.532359   0.20562172 
   16250    253.15679    44.522126   -55.533116   0.21905052 
   16260    256.81565    45.165601   -55.530751   0.24375064 
   16270    264.75391    46.561685   -55.534118   0.16856731 
   16280    264.30486    46.482713   -55.538275   0.32778492 
   16290    255.21277    44.883707   -55.527938   0.31050228 
   16300    282.95083    49.761937   -55.538645   0.27499334 
   16310    275.27701    48.412361   -55.537472   0.19762814 
   16320    250.20165    44.002412   -55.530167   0.25055732 
   16330    248.66499    43.732162   -55.530876   0.24961145 
   16340    253.03436    44.500595   -55.532298   0.23366104 
   16350    262.61132    46.184872   -55.533693   0.22866592 
   16360    269.28587    47.358711   -55.536073     0.297968 
   16370    260.84568    45.874354   -55.534377   0.20541618 
   16380    250.57799    44.068599   -55.530021   0.21304384 
   16390    261.12779    45.923967   -55.530844   0.40471599 
   16400    271.80708    47.802111   -55.536728   0.39697017 
   16410    251.09571    44.159648   -55.528084   0.22462484 
   16420    248.13936    43.639721   -55.531973   0.13897015 
   16430    248.20976    43.652103   -55.530738  0.077298551 
   16440    251.15465    44.170013   -55.533432    0.1755661 
   16450    254.30864      44.7247   -55.530022   0.27218472 
   16460    263.42467    46.327915   -55.534345   0.31265698 
   16470    263.75862    46.386647   -55.532913   0.22387214 
   16480    256.59325    45.126488   -55.534756   0.13005779 
   16490    240.20675    42.244631   -55.527264   0.16496168 
   16500    251.30208    44.195942   -55.536509   0.30986193 
   16510    249.21809    43.829435    -55.53182   0.38061293 
   16520    247.51108    43.529228   -55.529713   0.37465543 
   16530    254.68335    44.790599   -55.534322   0.39886877 
   16540    254.31614    44.726018   -55.530464   0.31285019 
   16550    253.18901    44.527792   -55.533028   0.12213288 
   16560    250.82095    44.111327    -55.53217 -0.030803058 
   16570    248.99077    43.789458   -55.532241  0.048070829 
   16580    244.11487    42.931943   -55.532547   0.27029021 
   16590    241.80384    42.525508   -55.528868   0.41826272 
   16600    253.78425    44.632476   -55.533491   0.41622018 
   16610     252.9712    44.489487   -55.534573   0.25752133 
   16620    240.83806    42.355659    -55.53002  0.067810802 
   16630    245.60632    43.194242   -55.528361   0.14136462 
   16640     262.0574    46.087456   -55.533259   0.32662395 
   16650    267.02162    46.960502   -55.532467   0.35785634 
   16660    258.73859    45.503785   -55.533112   0.21241236 
   16670    252.81582     44.46216   -55.529752   0.19217459 
   16680    253.08772    44.509979   -55.531048    0.1949257 
   16690    252.19576    44.353112   -55.533621   0.18160413 
   16700    253.81552    44.637975   -55.534008   0.36943808 
   16710    253.10883    44.513691   -55.535774   0.39911887 
   16720    249.82997    43.937046   -55.525875   0.27323273 
   16730     273.4752     48.09548   -55.535953   0.27032886 
   16740    272.89755     47.99389   -55.533015     0.289714 
   16750    263.85491     46.40358   -55.529798   0.24658648 
   16760     268.4601    47.213486   -55.535324    0.1868296 
   16770    255.99258     45.02085   -55.529087   0.14525714 
   16780     258.3808    45.440862   -55.535218  0.080946687 
   16790    260.70568    45.849732   -55.531566   0.10259362 
   16800    266.37201    46.846258   -55.534168   0.23878766 
   16810    262.85777    46.228216   -55.531289   0.39594362 
   16820    262.40803    46.149121   -55.532904   0.25752748 
   16830    260.73692    45.855227   -55.533764   0.26472476 
   16840    259.02078    45.553412   -55.530853   0.22778336 
   16850    262.84476    46.225928   -55.535752   0.20153302 
   16860    258.22098    45.412755   -55.528303   0.13075603 
   16870     275.8476    48.512709   -55.536807   0.37790992 
   16880    266.17193     46.81107   -55.532864   0.39444381 
   16890    249.57172    43.891627    -55.53063   0.16898455 
   16900    249.77262    43.926959   -55.531966   0.13076875 
   16910    262.00626    46.078463   -55.539421   0.14784042 
   16920    250.24206    44.009518    -55.52768   0.28875925 
   16930     247.5639    43.538516   -55.532759   0.38924868 
   16940    250.88762    44.123051   -55.532816   0.37624405 
   16950    249.56865    43.891087   -55.530213    0.3334265 
   16960    247.10281    43.457425    -55.53283   0.14083998 
   16970    243.23891    42.777891   -55.528506  0.018474908 
   16980     259.5099    45.639433   -55.535989     0.178383 
   16990     257.3426    45.258275   -55.532039   0.36630337 
   17000    249.24782    43.834664   -55.534668   0.31725961 
   17010    248.88139    43.770221   -55.528273   0.33458185 
   17020    273.03549    48.018148   -55.535685   0.40965701 
   17030    276.18017    48.571197   -55.536398   0.21649632 
   17040    251.06811    44.154795   -55.523537  -0.11730701 
   17050    258.57735    45.475428   -55.533804  0.004723657 
   17060     265.7571    46.738115    -55.53488   0.28948841 
   17070    258.56925    45.474004   -55.532416   0.40297219 
   17080    251.63969    44.255318   -55.530918   0.45212642 
   17090    250.41043     44.03913   -55.529959   0.30195754 
   17100    247.98586    43.612725   -55.529438   0.27934782 
   17110    258.57977    45.475853   -55.536651   0.37923422 
   17120       256.12    45.043259   -55.529869   0.28410465 
   17130    258.90384    45.532847   -55.532725   0.16894769 
   17140    264.09656    46.446078   -55.532441  0.053419375 
   17150    265.96674    46.774984   -55.531596  0.035239288 
   17160    268.07054    47.144974   -55.535763   0.19840894 
   17170    259.97141    45.720597   -55.531761   0.31848407 
   17180    252.24518    44.361803   -55.528612   0.32929849 
   17190    263.29065    46.304345   -55.538173   0.26159517 
   17200    253.28439    44.544567   -55.528457   0.27214728 
   17210    256.58932    45.125798   -55.533546   0.25970452 
   17220    256.61497    45.130309   -55.529982   0.22609548 
   17230    262.82183    46.221896   -55.533669   0.20298374 
   17240    264.03881    46.435922   -55.539293   0.28656007 
   17250    262.14018    46.102015   -55.535479   0.24753135 
   17260    268.82216    47.277161   -55.535034   0.18526536 
   17270    261.63926    46.013919   -55.532674   0.19597044 
   17280    258.46401    45.455495   -55.533534   0.28523937 
   17290    258.93075    45.537579   -55.529938    0.2946732 
   17300    259.97967    45.722051   -55.529722   0.21522172 
   17310      266.309    46.835177   -55.535722    0.2110617 
   17320    257.71467     45.32371   -55.530709   0.16183759 
   17330    265.94496    46.771152   -55.538909   0.24045157 
   17340    258.94195    45.539549   -55.530631   0.33910133 
   17350    258.36868    45.438729     -55.5301   0.32440566 
   17360     264.4922     46.51566   -55.537586   0.31870324 
   17370    264.83239    46.575488   -55.539012   0.23836563 
   17380     254.3106    44.725045   -55.529497   0.19712215 
   17390    256.80456    45.163652   -55.536144   0.25625735 
   17400    267.29664     47.00887   -55.536729   0.29164804 
   17410     265.0777    46.618629   -55.536256   0.18871595 
   17420    255.44053    44.923762   -55.533399   0.28804681 
   17430    254.57953     44.77234   -55.534864   0.26717814 
   17440    252.98368    44.491682     -55.5303   0.23911195 
   17450    259.60054    45.655373   -55.535596    0.1392745 
   17460    250.41274    44.039536   -55.532062  0.096034265 
   17470    249.65805     43.90681   -55.531565   0.18395239 
   17480    258.55846    45.472105    -55.53684   0.32112148 
   17490    256.34251    45.082391   -55.527955   0.31216118 
   17500    267.30561    47.010447   -55.539717   0.27713492 
   17510    256.01955    45.025593   -55.531035    0.1979557 
   17520    260.04571    45.733664   -55.532639   0.23672489 
   17530     259.5457     45.64573   -55.537765   0.35386964 
   17540    254.28313    44.720214   -55.533732   0.38426764 
   17550    256.15287    45.049039   -55.532241   0.22037603 
   17560    265.38912    46.673399   -55.540872   0.14920262 
   17570    246.63367    43.374919   -55.526132   0.13662747 
   17580    262.48963    46.163471   -55.540922   0.23155497 
   17590    252.70337    44.442383   -55.528167   0.26016862 
   17600    259.49182    45.636254   -55.539783   0.20620712 
   17610    265.03114    46.610442   -55.534957   0.18729893 
   17620    265.06092    46.615678   -55.533316   0.38651852 
   17630    251.14831    44.168898   -55.532506   0.24471944 
   17640    242.43972    42.637339     -55.5298  0.041597698 
   17650    263.42887    46.328654   -55.541472    0.2768878 
   17660     256.4607    45.103178   -55.529794   0.46359568 
   17670    258.73741    45.503577   -55.536467   0.36049246 
   17680    261.10237    45.919497   -55.535901   0.25093021 
   17690    256.60418    45.128411   -55.535081   0.20216113 
   17700    252.14255    44.343754   -55.533104   0.17073004 
   17710    257.39317    45.267169   -55.533012   0.21087923 
   17720    263.27058    46.300816    -55.53491   0.28744974 
   17730    272.28621    47.886375   -55.536168   0.30361146 
   17740    264.55831    46.527286   -55.537505   0.23584517 
   17750    243.01466    42.738452   -55.526529   0.20891504 
   17760    264.27473    46.477414   -55.545874   0.13603915 
   17770    255.32731    44.903851   -55.532191   0.17389423 
   17780    250.99487    44.141914   -55.531854   0.24057739 
   17790    260.68677    45.846407   -55.532802   0.25311284 
   17800    263.89039     46.40982   -55.539003   0.25701937 
   17810    258.34492    45.434551   -55.528015   0.31646048 
   17820    280.44031    49.320418   -55.544082   0.33065017 
   17830    256.29584    45.074184   -55.535843   0.20760481 
   17840    244.58174     43.01405   -55.529837   0.14881226 
   17850    261.37899    45.968146   -55.540329   0.30504906 
   17860    250.11308    43.986835   -55.527926   0.34603562 
   17870     267.0383    46.963437   -55.540827   0.25417806 
   17880    262.09933     46.09483   -55.531417   0.24344591 
   17890    252.41094    44.390955   -55.536402   0.26527454 
   17900    255.89568    45.003808   -55.539071   0.21054267 
   17910    254.30815    44.724613   -55.532057   0.16480221 
   17920       254.22     44.70911   -55.533124   0.14565301 
   17930    258.10093    45.391641   -55.534705   0.14676573 
   17940    258.04144    45.381178   -55.536791   0.13744765 
   17950     250.1515    43.993593   -55.531245   0.27898916 
   17960    264.41213    46.501577   -55.536837   0.51350649 
   17970    278.59269    48.995482   -55.538484   0.47144815 
   17980    282.26842    49.641923   -55.541545   0.22521111 
   17990    267.01108    46.958649   -55.536964 0.0062856677 
   18000    260.80977    45.868038   -55.527613  0.073272355 
   18010    270.04912    47.492942   -55.539068   0.36729894 
   18020    260.03139    45.731146   -55.536866   0.37625049 
   18030    260.91821    45.887109   -55.546363   0.29483867 
   18040    245.19927    43.122654   -55.531323   0.16815123 
   18050    262.07829     46.09113    -55.54259   0.14730152 
   18060    260.09216    45.741835   -55.536875    0.2989997 
   18070     264.6519    46.543746   -55.537182   0.32995544 
   18080    273.79397    48.151541   -55.540994   0.29082654 
   18090      264.918    46.590545   -55.532365   0.28544585 
   18100    265.42483    46.679679   -55.534069    0.2493558 
   18110     268.5989    47.237896   -55.539451  0.062906722 
   18120    259.77659    45.686335   -55.536758  0.044261181 
   18130     254.6267    44.780635   -55.535021   0.19058791 
   18140    258.26852    45.421114   -55.538047   0.40237424 
   18150    255.70244    44.969824   -55.532945    0.4285358 
   18160    269.12155    47.329813   -55.541022   0.27503884 
   18170    257.66339    45.314692   -55.533634   0.12555529 
   18180    255.27359    44.894403   -55.536045   0.10847243 
   18190    260.09685    45.742658   -55.537697    0.1820723 
   18200    253.16184    44.523013   -55.535851   0.35912735 
   18210    252.25139    44.362896   -55.533147   0.40677079 
   18220    269.86402    47.460389   -55.541558   0.30647707 
   18230    255.41723    44.919665   -55.534361   0.10257913 
   18240    247.01229    43.441506   -55.533405   0.12409136 
   18250    262.95635    46.245554   -55.538861   0.30523205 
   18260    259.61777    45.658404   -55.533904   0.28805628 
   18270    253.60911    44.601674   -55.535817   0.26082924 
   18280    261.22974    45.941898   -55.538136   0.29701444 
   18290    263.39266    46.322286   -55.542294   0.17936752 
   18300    253.16104    44.522873   -55.531616    0.1292243 
   18310    261.13804    45.925771   -55.538338   0.26072863 
   18320    262.35953    46.140591   -55.537854   0.36846923 
   18330    267.92953    47.120175   -55.537146   0.32842899 
   18340    268.59094    47.236496   -55.540557   0.30171288 
   18350     255.7312    44.974881   -55.531508   0.26180345 
   18360    263.56242    46.352142   -55.529483   0.23276141 
   18370    253.38479    44.562223   -55.534063   0.19600591 
   18380    258.21767    45.412171   -55.538915  0.063492912 
   18390      258.146    45.399567   -55.534263   0.06395941 
   18400    268.00008    47.132583   -55.541904   0.27956712 
   18410    255.76319    44.980508   -55.539017   0.41011669 
   18420    243.52096    42.827494   -55.533467   0.34037205 
   18430    260.43815    45.802683   -55.540479   0.27223151 
   18440    260.68763    45.846558   -55.536144   0.29749342 
   18450    247.29367    43.490992   -55.535044   0.28611569 
   18460    248.61023    43.722532   -55.536096    0.2835328 
   18470     258.8129    45.516853    -55.54044   0.19397392 
   18480    253.36682    44.559064   -55.536786    0.1002005 
   18490    255.14356    44.871535   -55.533621    0.1355195 
   18500    269.78331    47.446196   -55.543046    0.2508034 
   18510    256.40404    45.093212   -55.532147   0.35268099 
   18520     266.6978    46.903553   -55.542321   0.39655428 
   18530    258.39318    45.443038   -55.533381   0.25747556 
   18540    267.21758    46.994966    -55.53949   0.12513713 
   18550    268.76102    47.266408   -55.537493  0.020563247 
   18560    260.97981    45.897944   -55.538315    0.1023519 
   18570    251.18909    44.176071   -55.532737   0.34348504 
   18580    263.22797    46.293322    -55.54504   0.40871301 
   18590    247.21021    43.476314   -55.534847    0.4678628 
   18600    248.63102    43.726189   -55.536455   0.26100068 
   18610    263.13059    46.276196   -55.534904   0.22997516 
   18620    270.97746    47.656208   -55.539886   0.35554312 
   18630    253.67209    44.612751    -55.53563   0.24285675 
   18640    245.12042    43.108788   -55.534414   0.10044173 
   18650    253.02027    44.498117   -55.539196  0.083501651 
   18660    244.14075    42.936494   -55.535787   0.03093941 
   18670    241.90032    42.542476   -55.533226   0.12881941 
   18680    261.53542    45.995657    -55.53943   0.31420261 
   18690    268.32435    47.189612   -55.539055   0.38937747 
   18700    259.09564    45.566578   -55.534893   0.45860369 
   18710    254.78881    44.809147   -55.535062   0.38044247 
   18720    262.28743    46.127911   -55.538449   0.34901663 
   18730    257.29961    45.250715   -55.536181    0.2038433 
   18740    250.90891    44.126796   -55.535802  0.073176532 
   18750    252.33539    44.377668   -55.536496   0.04356243 
   18760    256.73528    45.151468   -55.535603   0.11673368 
   18770    261.10018    45.919112   -55.537622   0.21145891 
   18780    256.21968     45.06079   -55.537791   0.21528082 
   18790    256.10071    45.039866   -55.538117    0.2919261 
   18800    260.95804    45.894115   -55.534243   0.33941922 
   18810    266.12593     46.80298    -55.54311   0.36257632 
   18820    249.05961    43.801563   -55.531148    0.4043688 
   18830    267.28852    47.007442   -55.545556   0.29910956 
   18840    263.80764    46.395268   -55.537143   0.14179546 
   18850    272.32973    47.894029   -55.542859   0.15869918 
   18860    264.99783    46.604584   -55.533448   0.07353228 
   18870    270.72429    47.611684   -55.543436   0.17101932 
   18880    256.69057    45.143603   -55.530648   0.19169701 
   18890    271.42495    47.734908     -55.5448   0.36588397 
   18900    274.53466    48.281805   -55.547598   0.29537064 
   18910    251.33566    44.201848    -55.53296   0.24900351 
   18920    250.08311    43.981565   -55.535421   0.45442636 
   18930    263.71487    46.378953   -55.547045   0.39077138 
   18940    260.80773    45.867679   -55.538336   0.14813701 
   18950    266.06025     46.79143   -55.542053   0.14627204 
   18960    246.67739    43.382608   -55.533715   0.20316683 
   18970    257.75104    45.330107   -55.545541   0.27949166 
   18980    247.25417    43.484046   -55.533229   0.25083233 
   18990    262.87072    46.230494    -55.53962   0.19964273 
   19000    272.92677    47.999029    -55.54352   0.15202859 
   19010    249.24993    43.835034   -55.533999  0.098917646 
   19020    254.03842    44.677177   -55.540825   0.22865887 
   19030    256.84087    45.170037   -55.542025   0.35208843 
   19040     249.0721    43.803761   -55.536631    0.3992643 
   19050     260.2005    45.760888   -55.537357   0.39059947 
   19060    274.95028      48.3549   -55.551039   0.39115571 
   19070    257.48572    45.283445   -55.531208   0.27509096 
   19080    270.41314    47.556963   -55.543223   0.20771758 
   19090     254.0895     44.68616   -55.533067   0.16921931 
   19100    257.33195    45.256402   -55.539438   0.16073566 
   19110    252.96739    44.488817   -55.537827   0.12556389 
   19120    248.78743    43.753696   -55.538278  0.026703279 
   19130    248.87361    43.768852   -55.535258    0.1268483 
   19140    260.75638    45.858649   -55.536349   0.16749711 
   19150    268.44629    47.211056   -55.541523   0.19621193 
   19160    258.88914    45.530262   -55.538629   0.28569091 
   19170    259.36706    45.614312   -55.534603   0.35672107 
   19180    264.51631      46.5199   -55.540779   0.48346534 
   19190    267.44018    47.034114    -55.54473   0.39573686 
   19200    260.45488    45.805625   -55.538738   0.23031366 
   19210    250.16939    43.996739   -55.539932   0.21244605 
   19220     252.5957    44.423448   -55.538879   0.27564079 
   19230    260.45368    45.805413   -55.540305   0.24945589 
   19240    261.29642    45.953625   -55.536666   0.24026821 
   19250    273.12803    48.034423     -55.5403   0.23179174 
   19260    268.37555    47.198616   -55.538539   0.16555849 
   19270    258.34454    45.434483   -55.537183   0.13285206 
   19280     262.5665    46.176991    -55.53718  0.088397723 
   19290    265.11775    46.625673   -55.538961   0.25914021 
   19300    251.89164    44.299627   -55.533769   0.41302413 
   19310    259.82243    45.694398   -55.539959   0.35914044 
   19320      271.156    47.687607    -55.53767   0.36435853 
   19330    275.20135    48.399054   -55.540353   0.15720511 
   19340    260.11797    45.746373   -55.532279   0.12729782 
   19350     262.0421    46.084766   -55.538857   0.18437432 
   19360    258.49494    45.460935   -55.536957   0.26143164 
   19370    256.60416    45.128408   -55.538017   0.25072861 
   19380    258.73174     45.50258   -55.537421   0.19362063 
   19390     264.3796    46.495857   -55.541035   0.20357182 
   19400    255.74696    44.977654    -55.53653   0.12945495 
   19410    254.91533    44.831397    -55.54323   0.24560792 
   19420    243.17084     42.76592   -55.530161   0.35342325 
   19430    253.55409    44.591998   -55.538377   0.42697167 
   19440    261.04618    45.909615   -55.542431    0.3647475 
   19450    250.18677    43.999794   -55.531192   0.17880111 
   19460    258.26749    45.420934   -55.538146   0.20579926 
   19470    264.28768    46.479692   -55.538439   0.19924196 
   19480     262.0077    46.078717   -55.535665   0.18386556 
   19490    266.39371    46.850075   -55.542621   0.15362534 
   19500    260.45355     45.80539   -55.534482   0.29068524 
   19510    267.83415      47.1034   -55.540353   0.33940967 
   19520    254.57586    44.771695   -55.537782   0.24636894 
   19530    247.38907     43.50777   -55.533776   0.16558657 
   19540    266.14273    46.805935   -55.539903   0.15695517 
   19550    265.72561    46.732577   -55.539889   0.28503611 
   19560    256.57586     45.12343   -55.536475   0.31186599 
   19570    256.80063     45.16296   -55.536064   0.32977323 
   19580    258.80023    45.514625    -55.53467   0.26648826 
   19590    266.95685    46.949112    -55.53832   0.16633305 
   19600    256.57103     45.12258   -55.536131   0.12206069 
   19610    262.43568    46.153985   -55.538341   0.17097746 
   19620    275.64204    48.476557    -55.53632   0.31255648 
   19630    268.06776    47.144486   -55.537777   0.25531368 
   19640    249.11054     43.81052   -55.531424   0.15625635 
   19650    262.84659     46.22625   -55.538057   0.30348006 
   19660    262.22062    46.116162   -55.537231   0.35175342 
   19670    249.05882    43.801426   -55.534119   0.30221743 
   19680    254.34191    44.730551   -55.535904   0.23688579 
   19690     255.5327    44.939972   -55.535077   0.19293013 
   19700    247.24894    43.483126    -55.53154   0.21727101 
   19710    258.36217    45.437585   -55.535168   0.15829188 
   19720     269.8855    47.464167   -55.537966   0.25090641 
   19730    260.60933    45.832788   -55.534442    0.4052224 
   19740    261.27927    45.950608   -55.537618    0.4951701 
   19750    265.44429    46.683101   -55.540693   0.37530565 
   19760    265.90748    46.764562   -55.534306   0.13293252 
   19770     272.4925    47.922655   -55.539865  -0.07921827 
   19780    262.12422    46.099209   -55.534385 -0.011038773 
   19790    264.08335    46.443756   -55.537363   0.23721481 
   19800    257.70193    45.321469   -55.533283   0.39084761 
   19810    247.11298    43.459215   -55.532964   0.42769918 
   19820    257.10332    45.216193   -55.539845   0.37287887 
   19830    259.52415    45.641939   -55.538168   0.10586191 
   19840    257.57898    45.299846   -55.532283   0.10957334 
   19850    267.51926    47.048022   -55.536859   0.23785371 
   19860    264.81972     46.57326   -55.539284   0.28771315 
   19870    263.32901    46.311092   -55.537307   0.24666486 
   19880    269.73714    47.438076   -55.536213   0.36774826 
   19890    262.22431    46.116811   -55.536352    0.3467487 
   19900    258.54118    45.469067   -55.535726     0.330896 
   19910    252.76236    44.452759   -55.535648   0.12023577 
   19920    249.22214    43.830148   -55.533468  0.070775364 
   19930    253.16716     44.52395   -55.538484   0.21002411 
   19940    257.74922    45.329787   -55.540943   0.32103665 
   19950     257.9496    45.365028   -55.538298   0.29994055 
   19960    251.78685    44.281198   -55.533448   0.29022033 
   19970    255.72921    44.974531     -55.5389   0.22242125 
   19980    252.17133    44.348815   -55.531416   0.12607198 
   19990    271.40732    47.731807   -55.543752   0.24981817 
   20000    257.45813    45.278594   -55.528087   0.32312021 
Loop time of 0.853956 on 1 procs for 10000 steps with 60 atoms

Performance: 8617.225 ns/day, 0.003 hours/ns, 11710.205 timesteps/s
92.2% CPU use with 1 MPI tasks x no OpenMP threads

MPI task timing breakdown:
Section |  min time  |  avg time  |  max time  |%varavg| %total
---------------------------------------------------------------
Pair    | 0.68484    | 0.68484    | 0.68484    |   0.0 | 80.20
Neigh   | 0.052186   | 0.052186   | 0.052186   |   0.0 |  6.11
Comm    | 0.0083785  | 0.0083785  | 0.0083785  |   0.0 |  0.98
Output  | 0.088691   | 0.088691   | 0.088691   |   0.0 | 10.39
Modify  | 0.012134   | 0.012134   | 0.012134   |   0.0 |  1.42
Other   |            | 0.00773    |            |       |  0.91

Nlocal:    60 ave 60 max 60 min
Histogram: 1 0 0 0 0 0 0 0 0 0
Nghost:    23 ave 23 max 23 min
Histogram: 1 0 0 0 0 0 0 0 0 0
Neighs:    0 ave 0 max 0 min
Histogram: 1 0 0 0 0 0 0 0 0 0
FullNghs:  354 ave 354 max 354 min
Histogram: 1 0 0 0 0 0 0 0 0 0

Total # of neighbors = 354
Ave neighs/atom = 5.9
Neighbor list builds = 714
Dangerous builds = 0
unfix nve
undump 1

write_restart restart.equil





Total wall time: 0:00:01
